LOCATION,Mumbai,Maharashtra,INDIAN_METRO,Mumbai,999999,19.0760,72.8777,5.5,14.0
DESIGN CONDITIONS,1,Indian Metro Assumed Design Data,,Heating,4,18.0,20.0,15.0,10.0,18.0,20.0,10.0,15.0,20.0,18.0,20.0,18.0,3,0,Cooling,7,26.0,34.0,27.0,33.0,26.5,32.0,26.0,28.0,31.0,27.0,30.0,26.5,29.0,3.0,0,28.0,27.0,30.0,27.5,26.0,29.0,26.5,25.5,28.5,70.0,28.0,68.0,27.0,65.0,26.0,101.0,Extremes,18.0,16.0,15.0,34.0,12.0,38.0,10.0,8.0,10.0,40.0,8.0,40.0,7.0,41.0,6.0,42.0
TYPICAL/EXTREME PERIODS,0
GROUND TEMPERATURES,3,0.5,1.0,1800,800,24.0,24.5,26.0,28.0,30.0,31.0,30.5,30.0,29.0,27.0,25.0,24.0,2.0,1.0,1800,800,24.0,24.3,25.0,26.5,28.0,29.0,29.0,28.5,27.5,26.0,24.5,24.0,4.0,1.0,1800,800,24.0,24.1,24.5,25.5,27.0,28.0,28.0,27.5,26.5,25.5,24.5,24.0
HOLIDAYS/DAYLIGHT SAVINGS,No,0,0
COMMENTS 1,Generated from the Indian Metro weather dataset.
COMMENTS 2,Mumbai hourly temperature humidity dew point and wind data.
DATA PERIODS,1,1,Data,Sunday,1/1,12/31
2023,1,1,1,60,9,17.6,14.8,84.0,101325,0,0,0,0,0,0,0,0,0,0,0,7.0,0,0,9999,77777,9,999999999,0,0,0,99,0.2,0,0
2023,1,1,2,60,9,16.6,14.2,85.0,101325,0,0,0,0,0,0,0,0,0,0,0,7.7,0,0,9999,77777,9,999999999,0,0,0,99,0.2,0,0
2023,1,1,3,60,9,16.4,14.3,87.0,101325,0,0,0,0,0,0,0,0,0,0,0,7.6,0,0,9999,77777,9,999999999,0,0,0,99,0.2,0,0
2023,1,1,4,60,9,19.5,14.8,74.0,101325,0,0,0,0,0,0,0,0,0,0,0,5.5,0,0,9999,77777,9,999999999,0,0,0,99,0.2,0,0
2023,1,1,5,60,9,22.0,13.1,57.0,101325,0,0,0,0,0,0,0,0,0,0,0,6.2,0,0,9999,77777,9,999999999,0,0,0,99,0.2,0,0
2023,1,1,6,60,9,24.4,12.7,48.0,101325,0,0,0,0,0,0,0,0,0,0,0,9.2,0,0,9999,77777,9,999999999,0,0,0,99,0.2,0,0
2023,1,1,7,60,9,26.2,12.7,43.0,101325,0,0,0,0,0,0,0,0,0,0,0,11.9,0,0,9999,77777,9,999999999,0,0,0,99,0.2,0,0
2023,1,1,8,60,9,27.1,13.2,42.0,101325,0,0,0,0,0,0,0,0,0,0,0,13.7,0,0,9999,77777,9,999999999,0,0,0,99,0.2,0,0
2023,1,1,9,60,9,27.3,14.5,45.0,101325,0,0,0,0,0,0,0,0,0,0,0,14.0,0,0,9999,77777,9,999999999,0,0,0,99,0.2,0,0
2023,1,1,10,60,9,27.1,15.4,49.0,101325,0,0,0,0,0,0,0,0,0,0,0,15.5,0,0,9999,77777,9,999999999,0,0,0,99,0.2,0,0
2023,1,1,11,60,9,26.5,15.4,50.0,101325,0,0,0,0,0,0,0,0,0,0,0,16.8,0,0,9999,77777,9,999999999,0,0,0,99,0.2,0,0
2023,1,1,12,60,9,25.6,15.2,53.0,101325,0,0,0,0,0,0,0,0,0,0,0,17.3,0,0,9999,77777,9,999999999,0,0,0,99,0.2,0,0
2023,1,1,13,60,9,24.2,16.1,60.0,101325,0,0,0,0,0,0,0,0,0,0,0,17.7,0,0,9999,77777,9,999999999,0,0,0,99,0.2,0,0
2023,1,1,14,60,9,23.1,17.7,72.0,101325,0,0,0,0,0,0,0,0,0,0,0,18.4,0,0,9999,77777,9,999999999,0,0,0,99,0.2,0,0
2023,1,1,15,60,9,22.7,17.7,73.0,101325,0,0,0,0,0,0,0,0,0,0,0,16.6,0,0,9999,77777,9,999999999,0,0,0,99,0.2,0,0
2023,1,1,16,60,9,22.2,18.0,77.0,101325,0,0,0,0,0,0,0,0,0,0,0,15.1,0,0,9999,77777,9,999999999,0,0,0,99,0.2,0,0
2023,1,1,17,60,9,21.8,17.5,77.0,101325,0,0,0,0,0,0,0,0,0,0,0,13.5,0,0,9999,77777,9,999999999,0,0,0,99,0.2,0,0
2023,1,1,18,60,9,21.2,17.0,77.0,101325,0,0,0,0,0,0,0,0,0,0,0,9.0,0,0,9999,77777,9,999999999,0,0,0,99,0.2,0,0
2023,1,1,19,60,9,19.4,16.5,83.0,101325,0,0,0,0,0,0,0,0,0,0,0,7.5,0,0,9999,77777,9,999999999,0,0,0,99,0.2,0,0
2023,1,1,20,60,9,18.6,16.3,87.0,101325,0,0,0,0,0,0,0,0,0,0,0,8.4,0,0,9999,77777,9,999999999,0,0,0,99,0.2,0,0
2023,1,1,21,60,9,19.2,16.3,83.0,101325,0,0,0,0,0,0,0,0,0,0,0,7.1,0,0,9999,77777,9,999999999,0,0,0,99,0.2,0,0
2023,1,1,22,60,9,18.4,16.2,87.0,101325,0,0,0,0,0,0,0,0,0,0,0,6.8,0,0,9999,77777,9,999999999,0,0,0,99,0.2,0,0
2023,1,1,23,60,9,17.6,16.0,90.0,101325,0,0,0,0,0,0,0,0,0,0,0,7.2,0,0,9999,77777,9,999999999,0,0,0,99,0.2,0,0
2023,1,1,24,60,9,17.3,15.6,90.0,101325,0,0,0,0,0,0,0,0,0,0,0,7.6,0,0,9999,77777,9,999999999,0,0,0,99,0.2,0,0
2023,1,2,1,60,9,17.2,15.9,92.0,101325,0,0,0,0,0,0,0,0,0,0,0,7.1,0,0,9999,77777,9,999999999,0,0,0,99,0.2,0,0
2023,1,2,2,60,9,16.5,15.0,91.0,101325,0,0,0,0,0,0,0,0,0,0,0,7.0,0,0,9999,77777,9,999999999,0,0,0,99,0.2,0,0
2023,1,2,3,60,9,16.5,14.7,89.0,101325,0,0,0,0,0,0,0,0,0,0,0,6.6,0,0,9999,77777,9,999999999,0,0,0,99,0.2,0,0
2023,1,2,4,60,9,19.2,14.6,75.0,101325,0,0,0,0,0,0,0,0,0,0,0,9.6,0,0,9999,77777,9,999999999,0,0,0,99,0.2,0,0
2023,1,2,5,60,9,22.0,14.6,63.0,101325,0,0,0,0,0,0,0,0,0,0,0,7.9,0,0,9999,77777,9,999999999,0,0,0,99,0.2,0,0
2023,1,2,6,60,9,25.2,14.7,52.0,101325,0,0,0,0,0,0,0,0,0,0,0,6.3,0,0,9999,77777,9,999999999,0,0,0,99,0.2,0,0
2023,1,2,7,60,9,28.0,14.3,43.0,101325,0,0,0,0,0,0,0,0,0,0,0,6.3,0,0,9999,77777,9,999999999,0,0,0,99,0.2,0,0
2023,1,2,8,60,9,29.2,15.4,43.0,101325,0,0,0,0,0,0,0,0,0,0,0,9.7,0,0,9999,77777,9,999999999,0,0,0,99,0.2,0,0
2023,1,2,9,60,9,28.9,17.4,50.0,101325,0,0,0,0,0,0,0,0,0,0,0,14.0,0,0,9999,77777,9,999999999,0,0,0,99,0.2,0,0
2023,1,2,10,60,9,28.8,17.5,50.0,101325,0,0,0,0,0,0,0,0,0,0,0,15.3,0,0,9999,77777,9,999999999,0,0,0,99,0.2,0,0
2023,1,2,11,60,9,28.5,16.6,48.0,101325,0,0,0,0,0,0,0,0,0,0,0,15.8,0,0,9999,77777,9,999999999,0,0,0,99,0.2,0,0
2023,1,2,12,60,9,27.6,16.6,51.0,101325,0,0,0,0,0,0,0,0,0,0,0,16.2,0,0,9999,77777,9,999999999,0,0,0,99,0.2,0,0
2023,1,2,13,60,9,25.5,18.8,67.0,101325,0,0,0,0,0,0,0,0,0,0,0,15.0,0,0,9999,77777,9,999999999,0,0,0,99,0.2,0,0
2023,1,2,14,60,9,24.1,18.9,73.0,101325,0,0,0,0,0,0,0,0,0,0,0,16.9,0,0,9999,77777,9,999999999,0,0,0,99,0.2,0,0
2023,1,2,15,60,9,23.5,18.8,75.0,101325,0,0,0,0,0,0,0,0,0,0,0,16.3,0,0,9999,77777,9,999999999,0,0,0,99,0.2,0,0
2023,1,2,16,60,9,23.1,18.0,73.0,101325,0,0,0,0,0,0,0,0,0,0,0,16.2,0,0,9999,77777,9,999999999,0,0,0,99,0.2,0,0
2023,1,2,17,60,9,22.7,16.4,67.0,101325,0,0,0,0,0,0,0,0,0,0,0,13.6,0,0,9999,77777,9,999999999,0,0,0,99,0.2,0,0
2023,1,2,18,60,9,22.0,15.6,67.0,101325,0,0,0,0,0,0,0,0,0,0,0,9.0,0,0,9999,77777,9,999999999,0,0,0,99,0.2,0,0
2023,1,2,19,60,9,20.3,15.2,73.0,101325,0,0,0,0,0,0,0,0,0,0,0,7.9,0,0,9999,77777,9,999999999,0,0,0,99,0.2,0,0
2023,1,2,20,60,9,21.0,15.4,70.0,101325,0,0,0,0,0,0,0,0,0,0,0,9.6,0,0,9999,77777,9,999999999,0,0,0,99,0.2,0,0
2023,1,2,21,60,9,20.3,15.4,73.0,101325,0,0,0,0,0,0,0,0,0,0,0,8.0,0,0,9999,77777,9,999999999,0,0,0,99,0.2,0,0
2023,1,2,22,60,9,18.7,15.3,80.0,101325,0,0,0,0,0,0,0,0,0,0,0,8.4,0,0,9999,77777,9,999999999,0,0,0,99,0.2,0,0
2023,1,2,23,60,9,17.9,15.2,84.0,101325,0,0,0,0,0,0,0,0,0,0,0,9.1,0,0,9999,77777,9,999999999,0,0,0,99,0.2,0,0
2023,1,2,24,60,9,17.4,15.0,86.0,101325,0,0,0,0,0,0,0,0,0,0,0,9.5,0,0,9999,77777,9,999999999,0,0,0,99,0.2,0,0
2023,1,3,1,60,9,18.1,15.5,85.0,101325,0,0,0,0,0,0,0,0,0,0,0,7.1,0,0,9999,77777,9,999999999,0,0,0,99,0.2,0,0
2023,1,3,2,60,9,17.0,15.0,88.0,101325,0,0,0,0,0,0,0,0,0,0,0,8.2,0,0,9999,77777,9,999999999,0,0,0,99,0.2,0,0
2023,1,3,3,60,9,17.3,15.0,86.0,101325,0,0,0,0,0,0,0,0,0,0,0,7.3,0,0,9999,77777,9,999999999,0,0,0,99,0.2,0,0
2023,1,3,4,60,9,20.5,14.8,70.0,101325,0,0,0,0,0,0,0,0,0,0,0,8.4,0,0,9999,77777,9,999999999,0,0,0,99,0.2,0,0
2023,1,3,5,60,9,23.1,14.5,58.0,101325,0,0,0,0,0,0,0,0,0,0,0,6.7,0,0,9999,77777,9,999999999,0,0,0,99,0.2,0,0
2023,1,3,6,60,9,25.9,14.9,51.0,101325,0,0,0,0,0,0,0,0,0,0,0,6.2,0,0,9999,77777,9,999999999,0,0,0,99,0.2,0,0
2023,1,3,7,60,9,28.1,15.2,45.0,101325,0,0,0,0,0,0,0,0,0,0,0,5.8,0,0,9999,77777,9,999999999,0,0,0,99,0.2,0,0
2023,1,3,8,60,9,29.2,16.1,45.0,101325,0,0,0,0,0,0,0,0,0,0,0,9.4,0,0,9999,77777,9,999999999,0,0,0,99,0.2,0,0
2023,1,3,9,60,9,29.0,17.5,50.0,101325,0,0,0,0,0,0,0,0,0,0,0,12.3,0,0,9999,77777,9,999999999,0,0,0,99,0.2,0,0
2023,1,3,10,60,9,28.4,18.0,53.0,101325,0,0,0,0,0,0,0,0,0,0,0,15.4,0,0,9999,77777,9,999999999,0,0,0,99,0.2,0,0
2023,1,3,11,60,9,27.2,17.2,55.0,101325,0,0,0,0,0,0,0,0,0,0,0,18.6,0,0,9999,77777,9,999999999,0,0,0,99,0.2,0,0
2023,1,3,12,60,9,26.4,17.2,57.0,101325,0,0,0,0,0,0,0,0,0,0,0,18.2,0,0,9999,77777,9,999999999,0,0,0,99,0.2,0,0
2023,1,3,13,60,9,25.1,18.5,67.0,101325,0,0,0,0,0,0,0,0,0,0,0,14.2,0,0,9999,77777,9,999999999,0,0,0,99,0.2,0,0
2023,1,3,14,60,9,23.7,19.2,76.0,101325,0,0,0,0,0,0,0,0,0,0,0,16.0,0,0,9999,77777,9,999999999,0,0,0,99,0.2,0,0
2023,1,3,15,60,9,23.3,19.8,81.0,101325,0,0,0,0,0,0,0,0,0,0,0,19.0,0,0,9999,77777,9,999999999,0,0,0,99,0.2,0,0
2023,1,3,16,60,9,23.0,18.7,77.0,101325,0,0,0,0,0,0,0,0,0,0,0,18.1,0,0,9999,77777,9,999999999,0,0,0,99,0.2,0,0
2023,1,3,17,60,9,22.6,18.0,75.0,101325,0,0,0,0,0,0,0,0,0,0,0,17.1,0,0,9999,77777,9,999999999,0,0,0,99,0.2,0,0
2023,1,3,18,60,9,21.8,16.9,74.0,101325,0,0,0,0,0,0,0,0,0,0,0,9.4,0,0,9999,77777,9,999999999,0,0,0,99,0.2,0,0
2023,1,3,19,60,9,19.5,16.1,81.0,101325,0,0,0,0,0,0,0,0,0,0,0,9.2,0,0,9999,77777,9,999999999,0,0,0,99,0.2,0,0
2023,1,3,20,60,9,19.2,15.8,81.0,101325,0,0,0,0,0,0,0,0,0,0,0,8.8,0,0,9999,77777,9,999999999,0,0,0,99,0.2,0,0
2023,1,3,21,60,9,19.5,15.9,80.0,101325,0,0,0,0,0,0,0,0,0,0,0,6.8,0,0,9999,77777,9,999999999,0,0,0,99,0.2,0,0
2023,1,3,22,60,9,19.4,15.6,79.0,101325,0,0,0,0,0,0,0,0,0,0,0,7.1,0,0,9999,77777,9,999999999,0,0,0,99,0.2,0,0
2023,1,3,23,60,9,18.1,15.4,84.0,101325,0,0,0,0,0,0,0,0,0,0,0,7.9,0,0,9999,77777,9,999999999,0,0,0,99,0.2,0,0
2023,1,3,24,60,9,17.4,15.2,87.0,101325,0,0,0,0,0,0,0,0,0,0,0,8.6,0,0,9999,77777,9,999999999,0,0,0,99,0.2,0,0
2023,1,4,1,60,9,18.1,15.3,84.0,101325,0,0,0,0,0,0,0,0,0,0,0,7.0,0,0,9999,77777,9,999999999,0,0,0,99,0.2,0,0
2023,1,4,2,60,9,17.1,15.0,87.0,101325,0,0,0,0,0,0,0,0,0,0,0,7.4,0,0,9999,77777,9,999999999,0,0,0,99,0.2,0,0
2023,1,4,3,60,9,17.5,15.0,86.0,101325,0,0,0,0,0,0,0,0,0,0,0,6.6,0,0,9999,77777,9,999999999,0,0,0,99,0.2,0,0
2023,1,4,4,60,9,20.4,14.9,70.0,101325,0,0,0,0,0,0,0,0,0,0,0,8.6,0,0,9999,77777,9,999999999,0,0,0,99,0.2,0,0
2023,1,4,5,60,9,22.8,15.0,61.0,101325,0,0,0,0,0,0,0,0,0,0,0,7.4,0,0,9999,77777,9,999999999,0,0,0,99,0.2,0,0
2023,1,4,6,60,9,25.4,15.3,54.0,101325,0,0,0,0,0,0,0,0,0,0,0,5.8,0,0,9999,77777,9,999999999,0,0,0,99,0.2,0,0
2023,1,4,7,60,9,27.5,15.3,47.0,101325,0,0,0,0,0,0,0,0,0,0,0,2.2,0,0,9999,77777,9,999999999,0,0,0,99,0.2,0,0
2023,1,4,8,60,9,28.6,15.6,45.0,101325,0,0,0,0,0,0,0,0,0,0,0,4.6,0,0,9999,77777,9,999999999,0,0,0,99,0.2,0,0
2023,1,4,9,60,9,28.6,17.2,50.0,101325,0,0,0,0,0,0,0,0,0,0,0,10.0,0,0,9999,77777,9,999999999,0,0,0,99,0.2,0,0
2023,1,4,10,60,9,28.0,18.4,56.0,101325,0,0,0,0,0,0,0,0,0,0,0,13.6,0,0,9999,77777,9,999999999,0,0,0,99,0.2,0,0
2023,1,4,11,60,9,27.3,18.0,57.0,101325,0,0,0,0,0,0,0,0,0,0,0,15.8,0,0,9999,77777,9,999999999,0,0,0,99,0.2,0,0
2023,1,4,12,60,9,26.5,17.7,58.0,101325,0,0,0,0,0,0,0,0,0,0,0,16.8,0,0,9999,77777,9,999999999,0,0,0,99,0.2,0,0
2023,1,4,13,60,9,25.3,17.8,63.0,101325,0,0,0,0,0,0,0,0,0,0,0,15.6,0,0,9999,77777,9,999999999,0,0,0,99,0.2,0,0
2023,1,4,14,60,9,24.1,18.9,73.0,101325,0,0,0,0,0,0,0,0,0,0,0,15.5,0,0,9999,77777,9,999999999,0,0,0,99,0.2,0,0
2023,1,4,15,60,9,23.6,19.3,77.0,101325,0,0,0,0,0,0,0,0,0,0,0,14.7,0,0,9999,77777,9,999999999,0,0,0,99,0.2,0,0
2023,1,4,16,60,9,23.0,19.4,80.0,101325,0,0,0,0,0,0,0,0,0,0,0,13.3,0,0,9999,77777,9,999999999,0,0,0,99,0.2,0,0
2023,1,4,17,60,9,22.7,18.7,78.0,101325,0,0,0,0,0,0,0,0,0,0,0,7.2,0,0,9999,77777,9,999999999,0,0,0,99,0.2,0,0
2023,1,4,18,60,9,21.0,18.1,84.0,101325,0,0,0,0,0,0,0,0,0,0,0,6.6,0,0,9999,77777,9,999999999,0,0,0,99,0.2,0,0
2023,1,4,19,60,9,20.5,18.0,85.0,101325,0,0,0,0,0,0,0,0,0,0,0,5.2,0,0,9999,77777,9,999999999,0,0,0,99,0.2,0,0
2023,1,4,20,60,9,20.0,18.1,89.0,101325,0,0,0,0,0,0,0,0,0,0,0,6.2,0,0,9999,77777,9,999999999,0,0,0,99,0.2,0,0
2023,1,4,21,60,9,19.9,17.8,87.0,101325,0,0,0,0,0,0,0,0,0,0,0,6.4,0,0,9999,77777,9,999999999,0,0,0,99,0.2,0,0
2023,1,4,22,60,9,20.5,16.8,80.0,101325,0,0,0,0,0,0,0,0,0,0,0,6.2,0,0,9999,77777,9,999999999,0,0,0,99,0.2,0,0
2023,1,4,23,60,9,20.7,16.5,77.0,101325,0,0,0,0,0,0,0,0,0,0,0,7.5,0,0,9999,77777,9,999999999,0,0,0,99,0.2,0,0
2023,1,4,24,60,9,20.8,16.7,78.0,101325,0,0,0,0,0,0,0,0,0,0,0,8.4,0,0,9999,77777,9,999999999,0,0,0,99,0.2,0,0
2023,1,5,1,60,9,19.7,16.6,82.0,101325,0,0,0,0,0,0,0,0,0,0,0,6.6,0,0,9999,77777,9,999999999,0,0,0,99,0.2,0,0
2023,1,5,2,60,9,19.4,16.8,85.0,101325,0,0,0,0,0,0,0,0,0,0,0,6.0,0,0,9999,77777,9,999999999,0,0,0,99,0.2,0,0
2023,1,5,3,60,9,19.6,16.9,84.0,101325,0,0,0,0,0,0,0,0,0,0,0,5.4,0,0,9999,77777,9,999999999,0,0,0,99,0.2,0,0
2023,1,5,4,60,9,21.9,17.0,74.0,101325,0,0,0,0,0,0,0,0,0,0,0,6.4,0,0,9999,77777,9,999999999,0,0,0,99,0.2,0,0
2023,1,5,5,60,9,24.4,17.0,63.0,101325,0,0,0,0,0,0,0,0,0,0,0,5.1,0,0,9999,77777,9,999999999,0,0,0,99,0.2,0,0
2023,1,5,6,60,9,26.5,17.1,56.0,101325,0,0,0,0,0,0,0,0,0,0,0,2.5,0,0,9999,77777,9,999999999,0,0,0,99,0.2,0,0
2023,1,5,7,60,9,28.3,17.4,52.0,101325,0,0,0,0,0,0,0,0,0,0,0,0.5,0,0,9999,77777,9,999999999,0,0,0,99,0.2,0,0
2023,1,5,8,60,9,29.7,17.8,49.0,101325,0,0,0,0,0,0,0,0,0,0,0,4.7,0,0,9999,77777,9,999999999,0,0,0,99,0.2,0,0
2023,1,5,9,60,9,29.8,18.8,52.0,101325,0,0,0,0,0,0,0,0,0,0,0,10.4,0,0,9999,77777,9,999999999,0,0,0,99,0.2,0,0
2023,1,5,10,60,9,29.0,19.3,56.0,101325,0,0,0,0,0,0,0,0,0,0,0,13.6,0,0,9999,77777,9,999999999,0,0,0,99,0.2,0,0
2023,1,5,11,60,9,28.3,18.7,56.0,101325,0,0,0,0,0,0,0,0,0,0,0,14.8,0,0,9999,77777,9,999999999,0,0,0,99,0.2,0,0
2023,1,5,12,60,9,27.6,18.8,59.0,101325,0,0,0,0,0,0,0,0,0,0,0,13.8,0,0,9999,77777,9,999999999,0,0,0,99,0.2,0,0
2023,1,5,13,60,9,26.3,19.6,66.0,101325,0,0,0,0,0,0,0,0,0,0,0,11.9,0,0,9999,77777,9,999999999,0,0,0,99,0.2,0,0
2023,1,5,14,60,9,24.7,20.3,77.0,101325,0,0,0,0,0,0,0,0,0,0,0,13.0,0,0,9999,77777,9,999999999,0,0,0,99,0.2,0,0
2023,1,5,15,60,9,24.2,20.0,77.0,101325,0,0,0,0,0,0,0,0,0,0,0,13.4,0,0,9999,77777,9,999999999,0,0,0,99,0.2,0,0
2023,1,5,16,60,9,23.8,19.5,77.0,101325,0,0,0,0,0,0,0,0,0,0,0,11.5,0,0,9999,77777,9,999999999,0,0,0,99,0.2,0,0
2023,1,5,17,60,9,23.5,18.8,75.0,101325,0,0,0,0,0,0,0,0,0,0,0,11.3,0,0,9999,77777,9,999999999,0,0,0,99,0.2,0,0
2023,1,5,18,60,9,23.1,18.2,74.0,101325,0,0,0,0,0,0,0,0,0,0,0,9.0,0,0,9999,77777,9,999999999,0,0,0,99,0.2,0,0
2023,1,5,19,60,9,21.7,18.3,81.0,101325,0,0,0,0,0,0,0,0,0,0,0,6.6,0,0,9999,77777,9,999999999,0,0,0,99,0.2,0,0
2023,1,5,20,60,9,22.0,18.4,80.0,101325,0,0,0,0,0,0,0,0,0,0,0,6.0,0,0,9999,77777,9,999999999,0,0,0,99,0.2,0,0
2023,1,5,21,60,9,22.8,18.4,76.0,101325,0,0,0,0,0,0,0,0,0,0,0,3.8,0,0,9999,77777,9,999999999,0,0,0,99,0.2,0,0
2023,1,5,22,60,9,21.7,18.6,82.0,101325,0,0,0,0,0,0,0,0,0,0,0,5.1,0,0,9999,77777,9,999999999,0,0,0,99,0.2,0,0
2023,1,5,23,60,9,20.6,18.5,88.0,101325,0,0,0,0,0,0,0,0,0,0,0,6.1,0,0,9999,77777,9,999999999,0,0,0,99,0.2,0,0
2023,1,5,24,60,9,20.4,18.3,88.0,101325,0,0,0,0,0,0,0,0,0,0,0,6.4,0,0,9999,77777,9,999999999,0,0,0,99,0.2,0,0
2023,1,6,1,60,9,20.9,18.3,85.0,101325,0,0,0,0,0,0,0,0,0,0,0,6.4,0,0,9999,77777,9,999999999,0,0,0,99,0.2,0,0
2023,1,6,2,60,9,20.9,18.2,84.0,101325,0,0,0,0,0,0,0,0,0,0,0,8.4,0,0,9999,77777,9,999999999,0,0,0,99,0.2,0,0
2023,1,6,3,60,9,21.0,17.9,82.0,101325,0,0,0,0,0,0,0,0,0,0,0,9.1,0,0,9999,77777,9,999999999,0,0,0,99,0.2,0,0
2023,1,6,4,60,9,22.9,17.9,73.0,101325,0,0,0,0,0,0,0,0,0,0,0,12.6,0,0,9999,77777,9,999999999,0,0,0,99,0.2,0,0
2023,1,6,5,60,9,25.9,17.7,61.0,101325,0,0,0,0,0,0,0,0,0,0,0,11.7,0,0,9999,77777,9,999999999,0,0,0,99,0.2,0,0
2023,1,6,6,60,9,28.4,17.4,51.0,101325,0,0,0,0,0,0,0,0,0,0,0,12.4,0,0,9999,77777,9,999999999,0,0,0,99,0.2,0,0
2023,1,6,7,60,9,30.6,16.9,44.0,101325,0,0,0,0,0,0,0,0,0,0,0,13.8,0,0,9999,77777,9,999999999,0,0,0,99,0.2,0,0
2023,1,6,8,60,9,31.6,15.4,38.0,101325,0,0,0,0,0,0,0,0,0,0,0,11.4,0,0,9999,77777,9,999999999,0,0,0,99,0.2,0,0
2023,1,6,9,60,9,31.4,16.0,39.0,101325,0,0,0,0,0,0,0,0,0,0,0,9.7,0,0,9999,77777,9,999999999,0,0,0,99,0.2,0,0
2023,1,6,10,60,9,30.7,16.9,44.0,101325,0,0,0,0,0,0,0,0,0,0,0,13.5,0,0,9999,77777,9,999999999,0,0,0,99,0.2,0,0
2023,1,6,11,60,9,30.0,17.5,47.0,101325,0,0,0,0,0,0,0,0,0,0,0,15.2,0,0,9999,77777,9,999999999,0,0,0,99,0.2,0,0
2023,1,6,12,60,9,28.9,18.0,52.0,101325,0,0,0,0,0,0,0,0,0,0,0,14.8,0,0,9999,77777,9,999999999,0,0,0,99,0.2,0,0
2023,1,6,13,60,9,27.7,19.2,60.0,101325,0,0,0,0,0,0,0,0,0,0,0,13.4,0,0,9999,77777,9,999999999,0,0,0,99,0.2,0,0
2023,1,6,14,60,9,26.2,18.4,62.0,101325,0,0,0,0,0,0,0,0,0,0,0,12.5,0,0,9999,77777,9,999999999,0,0,0,99,0.2,0,0
2023,1,6,15,60,9,25.7,18.3,64.0,101325,0,0,0,0,0,0,0,0,0,0,0,11.8,0,0,9999,77777,9,999999999,0,0,0,99,0.2,0,0
2023,1,6,16,60,9,25.4,18.9,67.0,101325,0,0,0,0,0,0,0,0,0,0,0,15.3,0,0,9999,77777,9,999999999,0,0,0,99,0.2,0,0
2023,1,6,17,60,9,25.0,18.7,68.0,101325,0,0,0,0,0,0,0,0,0,0,0,13.4,0,0,9999,77777,9,999999999,0,0,0,99,0.2,0,0
2023,1,6,18,60,9,24.9,17.6,64.0,101325,0,0,0,0,0,0,0,0,0,0,0,10.5,0,0,9999,77777,9,999999999,0,0,0,99,0.2,0,0
2023,1,6,19,60,9,24.5,16.9,63.0,101325,0,0,0,0,0,0,0,0,0,0,0,9.7,0,0,9999,77777,9,999999999,0,0,0,99,0.2,0,0
2023,1,6,20,60,9,24.1,17.3,66.0,101325,0,0,0,0,0,0,0,0,0,0,0,10.2,0,0,9999,77777,9,999999999,0,0,0,99,0.2,0,0
2023,1,6,21,60,9,23.5,17.8,70.0,101325,0,0,0,0,0,0,0,0,0,0,0,8.4,0,0,9999,77777,9,999999999,0,0,0,99,0.2,0,0
2023,1,6,22,60,9,23.2,17.6,71.0,101325,0,0,0,0,0,0,0,0,0,0,0,9.8,0,0,9999,77777,9,999999999,0,0,0,99,0.2,0,0
2023,1,6,23,60,9,22.9,17.5,72.0,101325,0,0,0,0,0,0,0,0,0,0,0,11.0,0,0,9999,77777,9,999999999,0,0,0,99,0.2,0,0
2023,1,6,24,60,9,22.7,17.4,72.0,101325,0,0,0,0,0,0,0,0,0,0,0,11.4,0,0,9999,77777,9,999999999,0,0,0,99,0.2,0,0
2023,1,7,1,60,9,22.8,17.8,74.0,101325,0,0,0,0,0,0,0,0,0,0,0,13.5,0,0,9999,77777,9,999999999,0,0,0,99,0.2,0,0
2023,1,7,2,60,9,22.7,18.0,75.0,101325,0,0,0,0,0,0,0,0,0,0,0,12.1,0,0,9999,77777,9,999999999,0,0,0,99,0.2,0,0
2023,1,7,3,60,9,22.4,18.0,76.0,101325,0,0,0,0,0,0,0,0,0,0,0,11.4,0,0,9999,77777,9,999999999,0,0,0,99,0.2,0,0
2023,1,7,4,60,9,23.8,18.3,72.0,101325,0,0,0,0,0,0,0,0,0,0,0,13.0,0,0,9999,77777,9,999999999,0,0,0,99,0.2,0,0
2023,1,7,5,60,9,26.3,18.2,61.0,101325,0,0,0,0,0,0,0,0,0,0,0,11.8,0,0,9999,77777,9,999999999,0,0,0,99,0.2,0,0
2023,1,7,6,60,9,28.5,18.0,53.0,101325,0,0,0,0,0,0,0,0,0,0,0,13.2,0,0,9999,77777,9,999999999,0,0,0,99,0.2,0,0
2023,1,7,7,60,9,30.5,17.5,46.0,101325,0,0,0,0,0,0,0,0,0,0,0,11.9,0,0,9999,77777,9,999999999,0,0,0,99,0.2,0,0
2023,1,7,8,60,9,31.8,16.1,39.0,101325,0,0,0,0,0,0,0,0,0,0,0,7.6,0,0,9999,77777,9,999999999,0,0,0,99,0.2,0,0
2023,1,7,9,60,9,32.0,15.8,38.0,101325,0,0,0,0,0,0,0,0,0,0,0,1.8,0,0,9999,77777,9,999999999,0,0,0,99,0.2,0,0
2023,1,7,10,60,9,31.7,15.3,37.0,101325,0,0,0,0,0,0,0,0,0,0,0,5.4,0,0,9999,77777,9,999999999,0,0,0,99,0.2,0,0
2023,1,7,11,60,9,30.6,18.1,47.0,101325,0,0,0,0,0,0,0,0,0,0,0,13.5,0,0,9999,77777,9,999999999,0,0,0,99,0.2,0,0
2023,1,7,12,60,9,29.4,19.6,55.0,101325,0,0,0,0,0,0,0,0,0,0,0,13.8,0,0,9999,77777,9,999999999,0,0,0,99,0.2,0,0
2023,1,7,13,60,9,28.2,19.9,61.0,101325,0,0,0,0,0,0,0,0,0,0,0,12.1,0,0,9999,77777,9,999999999,0,0,0,99,0.2,0,0
2023,1,7,14,60,9,26.0,20.2,70.0,101325,0,0,0,0,0,0,0,0,0,0,0,16.7,0,0,9999,77777,9,999999999,0,0,0,99,0.2,0,0
2023,1,7,15,60,9,25.5,19.0,67.0,101325,0,0,0,0,0,0,0,0,0,0,0,15.0,0,0,9999,77777,9,999999999,0,0,0,99,0.2,0,0
2023,1,7,16,60,9,25.1,20.2,74.0,101325,0,0,0,0,0,0,0,0,0,0,0,12.5,0,0,9999,77777,9,999999999,0,0,0,99,0.2,0,0
2023,1,7,17,60,9,24.6,20.5,78.0,101325,0,0,0,0,0,0,0,0,0,0,0,12.9,0,0,9999,77777,9,999999999,0,0,0,99,0.2,0,0
2023,1,7,18,60,9,24.4,19.8,76.0,101325,0,0,0,0,0,0,0,0,0,0,0,13.1,0,0,9999,77777,9,999999999,0,0,0,99,0.2,0,0
2023,1,7,19,60,9,24.4,19.2,73.0,101325,0,0,0,0,0,0,0,0,0,0,0,12.6,0,0,9999,77777,9,999999999,0,0,0,99,0.2,0,0
2023,1,7,20,60,9,23.9,19.2,75.0,101325,0,0,0,0,0,0,0,0,0,0,0,10.0,0,0,9999,77777,9,999999999,0,0,0,99,0.2,0,0
2023,1,7,21,60,9,23.1,19.2,79.0,101325,0,0,0,0,0,0,0,0,0,0,0,7.2,0,0,9999,77777,9,999999999,0,0,0,99,0.2,0,0
2023,1,7,22,60,9,22.2,18.6,80.0,101325,0,0,0,0,0,0,0,0,0,0,0,6.1,0,0,9999,77777,9,999999999,0,0,0,99,0.2,0,0
2023,1,7,23,60,9,22.0,17.6,76.0,101325,0,0,0,0,0,0,0,0,0,0,0,7.0,0,0,9999,77777,9,999999999,0,0,0,99,0.2,0,0
2023,1,7,24,60,9,21.8,16.7,73.0,101325,0,0,0,0,0,0,0,0,0,0,0,7.4,0,0,9999,77777,9,999999999,0,0,0,99,0.2,0,0
2023,1,8,1,60,9,21.5,17.0,76.0,101325,0,0,0,0,0,0,0,0,0,0,0,5.5,0,0,9999,77777,9,999999999,0,0,0,99,0.2,0,0
2023,1,8,2,60,9,21.3,16.8,75.0,101325,0,0,0,0,0,0,0,0,0,0,0,6.6,0,0,9999,77777,9,999999999,0,0,0,99,0.2,0,0
2023,1,8,3,60,9,21.4,16.5,73.0,101325,0,0,0,0,0,0,0,0,0,0,0,8.7,0,0,9999,77777,9,999999999,0,0,0,99,0.2,0,0
2023,1,8,4,60,9,22.8,16.8,69.0,101325,0,0,0,0,0,0,0,0,0,0,0,11.8,0,0,9999,77777,9,999999999,0,0,0,99,0.2,0,0
2023,1,8,5,60,9,25.4,16.8,59.0,101325,0,0,0,0,0,0,0,0,0,0,0,10.3,0,0,9999,77777,9,999999999,0,0,0,99,0.2,0,0
2023,1,8,6,60,9,28.1,16.5,49.0,101325,0,0,0,0,0,0,0,0,0,0,0,9.3,0,0,9999,77777,9,999999999,0,0,0,99,0.2,0,0
2023,1,8,7,60,9,30.1,15.2,40.0,101325,0,0,0,0,0,0,0,0,0,0,0,7.5,0,0,9999,77777,9,999999999,0,0,0,99,0.2,0,0
2023,1,8,8,60,9,31.2,14.3,36.0,101325,0,0,0,0,0,0,0,0,0,0,0,5.1,0,0,9999,77777,9,999999999,0,0,0,99,0.2,0,0
2023,1,8,9,60,9,31.4,14.1,35.0,101325,0,0,0,0,0,0,0,0,0,0,0,6.9,0,0,9999,77777,9,999999999,0,0,0,99,0.2,0,0
2023,1,8,10,60,9,30.5,16.9,44.0,101325,0,0,0,0,0,0,0,0,0,0,0,14.8,0,0,9999,77777,9,999999999,0,0,0,99,0.2,0,0
2023,1,8,11,60,9,29.3,18.1,51.0,101325,0,0,0,0,0,0,0,0,0,0,0,17.4,0,0,9999,77777,9,999999999,0,0,0,99,0.2,0,0
2023,1,8,12,60,9,27.9,17.8,54.0,101325,0,0,0,0,0,0,0,0,0,0,0,18.8,0,0,9999,77777,9,999999999,0,0,0,99,0.2,0,0
2023,1,8,13,60,9,27.0,14.4,46.0,101325,0,0,0,0,0,0,0,0,0,0,0,16.8,0,0,9999,77777,9,999999999,0,0,0,99,0.2,0,0
2023,1,8,14,60,9,26.1,13.9,47.0,101325,0,0,0,0,0,0,0,0,0,0,0,16.7,0,0,9999,77777,9,999999999,0,0,0,99,0.2,0,0
2023,1,8,15,60,9,25.4,15.9,56.0,101325,0,0,0,0,0,0,0,0,0,0,0,16.8,0,0,9999,77777,9,999999999,0,0,0,99,0.2,0,0
2023,1,8,16,60,9,24.9,16.3,59.0,101325,0,0,0,0,0,0,0,0,0,0,0,18.9,0,0,9999,77777,9,999999999,0,0,0,99,0.2,0,0
2023,1,8,17,60,9,24.5,16.4,60.0,101325,0,0,0,0,0,0,0,0,0,0,0,19.0,0,0,9999,77777,9,999999999,0,0,0,99,0.2,0,0
2023,1,8,18,60,9,24.1,16.3,62.0,101325,0,0,0,0,0,0,0,0,0,0,0,15.0,0,0,9999,77777,9,999999999,0,0,0,99,0.2,0,0
2023,1,8,19,60,9,23.6,14.5,57.0,101325,0,0,0,0,0,0,0,0,0,0,0,10.5,0,0,9999,77777,9,999999999,0,0,0,99,0.2,0,0
2023,1,8,20,60,9,22.7,13.4,56.0,101325,0,0,0,0,0,0,0,0,0,0,0,7.4,0,0,9999,77777,9,999999999,0,0,0,99,0.2,0,0
2023,1,8,21,60,9,21.8,13.2,58.0,101325,0,0,0,0,0,0,0,0,0,0,0,7.1,0,0,9999,77777,9,999999999,0,0,0,99,0.2,0,0
2023,1,8,22,60,9,21.3,13.1,60.0,101325,0,0,0,0,0,0,0,0,0,0,0,7.0,0,0,9999,77777,9,999999999,0,0,0,99,0.2,0,0
2023,1,8,23,60,9,20.5,13.1,63.0,101325,0,0,0,0,0,0,0,0,0,0,0,6.4,0,0,9999,77777,9,999999999,0,0,0,99,0.2,0,0
2023,1,8,24,60,9,19.8,13.1,65.0,101325,0,0,0,0,0,0,0,0,0,0,0,6.1,0,0,9999,77777,9,999999999,0,0,0,99,0.2,0,0
2023,1,9,1,60,9,20.1,12.9,63.0,101325,0,0,0,0,0,0,0,0,0,0,0,6.6,0,0,9999,77777,9,999999999,0,0,0,99,0.2,0,0
2023,1,9,2,60,9,19.2,12.8,66.0,101325,0,0,0,0,0,0,0,0,0,0,0,5.9,0,0,9999,77777,9,999999999,0,0,0,99,0.2,0,0
2023,1,9,3,60,9,18.9,12.5,67.0,101325,0,0,0,0,0,0,0,0,0,0,0,5.9,0,0,9999,77777,9,999999999,0,0,0,99,0.2,0,0
2023,1,9,4,60,9,20.8,12.7,60.0,101325,0,0,0,0,0,0,0,0,0,0,0,9.0,0,0,9999,77777,9,999999999,0,0,0,99,0.2,0,0
2023,1,9,5,60,9,23.5,12.0,48.0,101325,0,0,0,0,0,0,0,0,0,0,0,7.7,0,0,9999,77777,9,999999999,0,0,0,99,0.2,0,0
2023,1,9,6,60,9,26.8,11.2,38.0,101325,0,0,0,0,0,0,0,0,0,0,0,7.3,0,0,9999,77777,9,999999999,0,0,0,99,0.2,0,0
2023,1,9,7,60,9,29.3,8.7,28.0,101325,0,0,0,0,0,0,0,0,0,0,0,5.6,0,0,9999,77777,9,999999999,0,0,0,99,0.2,0,0
2023,1,9,8,60,9,30.5,8.3,25.0,101325,0,0,0,0,0,0,0,0,0,0,0,3.7,0,0,9999,77777,9,999999999,0,0,0,99,0.2,0,0
2023,1,9,9,60,9,30.7,9.7,27.0,101325,0,0,0,0,0,0,0,0,0,0,0,7.8,0,0,9999,77777,9,999999999,0,0,0,99,0.2,0,0
2023,1,9,10,60,9,29.6,13.9,38.0,101325,0,0,0,0,0,0,0,0,0,0,0,15.7,0,0,9999,77777,9,999999999,0,0,0,99,0.2,0,0
2023,1,9,11,60,9,28.3,13.8,41.0,101325,0,0,0,0,0,0,0,0,0,0,0,18.1,0,0,9999,77777,9,999999999,0,0,0,99,0.2,0,0
2023,1,9,12,60,9,27.2,15.5,49.0,101325,0,0,0,0,0,0,0,0,0,0,0,18.2,0,0,9999,77777,9,999999999,0,0,0,99,0.2,0,0
2023,1,9,13,60,9,25.8,15.8,54.0,101325,0,0,0,0,0,0,0,0,0,0,0,16.5,0,0,9999,77777,9,999999999,0,0,0,99,0.2,0,0
2023,1,9,14,60,9,24.8,16.9,62.0,101325,0,0,0,0,0,0,0,0,0,0,0,18.3,0,0,9999,77777,9,999999999,0,0,0,99,0.2,0,0
2023,1,9,15,60,9,24.3,16.2,60.0,101325,0,0,0,0,0,0,0,0,0,0,0,18.3,0,0,9999,77777,9,999999999,0,0,0,99,0.2,0,0
2023,1,9,16,60,9,24.1,15.2,58.0,101325,0,0,0,0,0,0,0,0,0,0,0,18.7,0,0,9999,77777,9,999999999,0,0,0,99,0.2,0,0
2023,1,9,17,60,9,23.6,14.1,55.0,101325,0,0,0,0,0,0,0,0,0,0,0,17.3,0,0,9999,77777,9,999999999,0,0,0,99,0.2,0,0
2023,1,9,18,60,9,23.1,12.4,51.0,101325,0,0,0,0,0,0,0,0,0,0,0,12.3,0,0,9999,77777,9,999999999,0,0,0,99,0.2,0,0
2023,1,9,19,60,9,21.6,11.8,54.0,101325,0,0,0,0,0,0,0,0,0,0,0,7.3,0,0,9999,77777,9,999999999,0,0,0,99,0.2,0,0
2023,1,9,20,60,9,20.5,11.8,57.0,101325,0,0,0,0,0,0,0,0,0,0,0,8.9,0,0,9999,77777,9,999999999,0,0,0,99,0.2,0,0
2023,1,9,21,60,9,19.8,11.7,60.0,101325,0,0,0,0,0,0,0,0,0,0,0,8.4,0,0,9999,77777,9,999999999,0,0,0,99,0.2,0,0
2023,1,9,22,60,9,19.2,11.9,62.0,101325,0,0,0,0,0,0,0,0,0,0,0,7.6,0,0,9999,77777,9,999999999,0,0,0,99,0.2,0,0
2023,1,9,23,60,9,19.2,11.6,61.0,101325,0,0,0,0,0,0,0,0,0,0,0,7.7,0,0,9999,77777,9,999999999,0,0,0,99,0.2,0,0
2023,1,9,24,60,9,18.9,11.5,62.0,101325,0,0,0,0,0,0,0,0,0,0,0,8.4,0,0,9999,77777,9,999999999,0,0,0,99,0.2,0,0
2023,1,10,1,60,9,18.9,11.2,61.0,101325,0,0,0,0,0,0,0,0,0,0,0,7.6,0,0,9999,77777,9,999999999,0,0,0,99,0.2,0,0
2023,1,10,2,60,9,17.6,10.6,64.0,101325,0,0,0,0,0,0,0,0,0,0,0,7.0,0,0,9999,77777,9,999999999,0,0,0,99,0.2,0,0
2023,1,10,3,60,9,17.2,10.4,64.0,101325,0,0,0,0,0,0,0,0,0,0,0,6.6,0,0,9999,77777,9,999999999,0,0,0,99,0.2,0,0
2023,1,10,4,60,9,19.7,10.7,56.0,101325,0,0,0,0,0,0,0,0,0,0,0,8.2,0,0,9999,77777,9,999999999,0,0,0,99,0.2,0,0
2023,1,10,5,60,9,22.3,10.3,46.0,101325,0,0,0,0,0,0,0,0,0,0,0,6.6,0,0,9999,77777,9,999999999,0,0,0,99,0.2,0,0
2023,1,10,6,60,9,25.7,9.6,36.0,101325,0,0,0,0,0,0,0,0,0,0,0,5.9,0,0,9999,77777,9,999999999,0,0,0,99,0.2,0,0
2023,1,10,7,60,9,28.6,8.3,28.0,101325,0,0,0,0,0,0,0,0,0,0,0,4.9,0,0,9999,77777,9,999999999,0,0,0,99,0.2,0,0
2023,1,10,8,60,9,30.5,7.2,23.0,101325,0,0,0,0,0,0,0,0,0,0,0,3.6,0,0,9999,77777,9,999999999,0,0,0,99,0.2,0,0
2023,1,10,9,60,9,31.1,6.2,21.0,101325,0,0,0,0,0,0,0,0,0,0,0,5.4,0,0,9999,77777,9,999999999,0,0,0,99,0.2,0,0
2023,1,10,10,60,9,30.5,11.5,31.0,101325,0,0,0,0,0,0,0,0,0,0,0,11.1,0,0,9999,77777,9,999999999,0,0,0,99,0.2,0,0
2023,1,10,11,60,9,28.8,15.5,44.0,101325,0,0,0,0,0,0,0,0,0,0,0,15.6,0,0,9999,77777,9,999999999,0,0,0,99,0.2,0,0
2023,1,10,12,60,9,27.1,15.1,48.0,101325,0,0,0,0,0,0,0,0,0,0,0,17.9,0,0,9999,77777,9,999999999,0,0,0,99,0.2,0,0
2023,1,10,13,60,9,25.9,15.6,53.0,101325,0,0,0,0,0,0,0,0,0,0,0,14.2,0,0,9999,77777,9,999999999,0,0,0,99,0.2,0,0
2023,1,10,14,60,9,24.5,16.5,61.0,101325,0,0,0,0,0,0,0,0,0,0,0,16.2,0,0,9999,77777,9,999999999,0,0,0,99,0.2,0,0
2023,1,10,15,60,9,24.0,16.0,61.0,101325,0,0,0,0,0,0,0,0,0,0,0,17.0,0,0,9999,77777,9,999999999,0,0,0,99,0.2,0,0
2023,1,10,16,60,9,23.8,15.1,58.0,101325,0,0,0,0,0,0,0,0,0,0,0,17.7,0,0,9999,77777,9,999999999,0,0,0,99,0.2,0,0
2023,1,10,17,60,9,23.5,13.9,55.0,101325,0,0,0,0,0,0,0,0,0,0,0,17.3,0,0,9999,77777,9,999999999,0,0,0,99,0.2,0,0
2023,1,10,18,60,9,22.9,11.7,49.0,101325,0,0,0,0,0,0,0,0,0,0,0,10.4,0,0,9999,77777,9,999999999,0,0,0,99,0.2,0,0
2023,1,10,19,60,9,20.5,12.3,59.0,101325,0,0,0,0,0,0,0,0,0,0,0,9.2,0,0,9999,77777,9,999999999,0,0,0,99,0.2,0,0
2023,1,10,20,60,9,22.5,12.1,52.0,101325,0,0,0,0,0,0,0,0,0,0,0,5.2,0,0,9999,77777,9,999999999,0,0,0,99,0.2,0,0
2023,1,10,21,60,9,21.9,12.9,57.0,101325,0,0,0,0,0,0,0,0,0,0,0,4.7,0,0,9999,77777,9,999999999,0,0,0,99,0.2,0,0
2023,1,10,22,60,9,21.0,13.9,64.0,101325,0,0,0,0,0,0,0,0,0,0,0,5.0,0,0,9999,77777,9,999999999,0,0,0,99,0.2,0,0
2023,1,10,23,60,9,19.7,14.2,71.0,101325,0,0,0,0,0,0,0,0,0,0,0,6.0,0,0,9999,77777,9,999999999,0,0,0,99,0.2,0,0
2023,1,10,24,60,9,16.7,13.0,79.0,101325,0,0,0,0,0,0,0,0,0,0,0,8.8,0,0,9999,77777,9,999999999,0,0,0,99,0.2,0,0
2023,1,11,1,60,9,17.2,12.8,76.0,101325,0,0,0,0,0,0,0,0,0,0,0,7.7,0,0,9999,77777,9,999999999,0,0,0,99,0.2,0,0
2023,1,11,2,60,9,16.1,12.4,78.0,101325,0,0,0,0,0,0,0,0,0,0,0,7.0,0,0,9999,77777,9,999999999,0,0,0,99,0.2,0,0
2023,1,11,3,60,9,16.3,12.4,77.0,101325,0,0,0,0,0,0,0,0,0,0,0,5.9,0,0,9999,77777,9,999999999,0,0,0,99,0.2,0,0
2023,1,11,4,60,9,19.2,12.3,64.0,101325,0,0,0,0,0,0,0,0,0,0,0,5.9,0,0,9999,77777,9,999999999,0,0,0,99,0.2,0,0
2023,1,11,5,60,9,22.5,12.6,54.0,101325,0,0,0,0,0,0,0,0,0,0,0,4.8,0,0,9999,77777,9,999999999,0,0,0,99,0.2,0,0
2023,1,11,6,60,9,26.1,11.5,40.0,101325,0,0,0,0,0,0,0,0,0,0,0,2.3,0,0,9999,77777,9,999999999,0,0,0,99,0.2,0,0
2023,1,11,7,60,9,28.3,11.4,35.0,101325,0,0,0,0,0,0,0,0,0,0,0,2.8,0,0,9999,77777,9,999999999,0,0,0,99,0.2,0,0
2023,1,11,8,60,9,29.4,12.2,35.0,101325,0,0,0,0,0,0,0,0,0,0,0,7.3,0,0,9999,77777,9,999999999,0,0,0,99,0.2,0,0
2023,1,11,9,60,9,28.9,14.9,43.0,101325,0,0,0,0,0,0,0,0,0,0,0,11.9,0,0,9999,77777,9,999999999,0,0,0,99,0.2,0,0
2023,1,11,10,60,9,28.1,15.9,47.0,101325,0,0,0,0,0,0,0,0,0,0,0,14.1,0,0,9999,77777,9,999999999,0,0,0,99,0.2,0,0
2023,1,11,11,60,9,27.5,14.7,45.0,101325,0,0,0,0,0,0,0,0,0,0,0,14.9,0,0,9999,77777,9,999999999,0,0,0,99,0.2,0,0
2023,1,11,12,60,9,26.7,15.3,50.0,101325,0,0,0,0,0,0,0,0,0,0,0,15.6,0,0,9999,77777,9,999999999,0,0,0,99,0.2,0,0
2023,1,11,13,60,9,24.9,17.5,63.0,101325,0,0,0,0,0,0,0,0,0,0,0,15.0,0,0,9999,77777,9,999999999,0,0,0,99,0.2,0,0
2023,1,11,14,60,9,23.6,17.1,67.0,101325,0,0,0,0,0,0,0,0,0,0,0,14.4,0,0,9999,77777,9,999999999,0,0,0,99,0.2,0,0
2023,1,11,15,60,9,22.9,17.0,69.0,101325,0,0,0,0,0,0,0,0,0,0,0,12.9,0,0,9999,77777,9,999999999,0,0,0,99,0.2,0,0
2023,1,11,16,60,9,22.4,16.5,69.0,101325,0,0,0,0,0,0,0,0,0,0,0,11.4,0,0,9999,77777,9,999999999,0,0,0,99,0.2,0,0
2023,1,11,17,60,9,21.7,16.1,70.0,101325,0,0,0,0,0,0,0,0,0,0,0,10.0,0,0,9999,77777,9,999999999,0,0,0,99,0.2,0,0
2023,1,11,18,60,9,21.0,15.4,71.0,101325,0,0,0,0,0,0,0,0,0,0,0,8.1,0,0,9999,77777,9,999999999,0,0,0,99,0.2,0,0
2023,1,11,19,60,9,18.4,14.0,76.0,101325,0,0,0,0,0,0,0,0,0,0,0,9.2,0,0,9999,77777,9,999999999,0,0,0,99,0.2,0,0
2023,1,11,20,60,9,18.1,13.8,76.0,101325,0,0,0,0,0,0,0,0,0,0,0,8.5,0,0,9999,77777,9,999999999,0,0,0,99,0.2,0,0
2023,1,11,21,60,9,16.8,13.5,81.0,101325,0,0,0,0,0,0,0,0,0,0,0,10.1,0,0,9999,77777,9,999999999,0,0,0,99,0.2,0,0
2023,1,11,22,60,9,17.0,12.1,73.0,101325,0,0,0,0,0,0,0,0,0,0,0,9.8,0,0,9999,77777,9,999999999,0,0,0,99,0.2,0,0
2023,1,11,23,60,9,17.9,13.2,74.0,101325,0,0,0,0,0,0,0,0,0,0,0,8.5,0,0,9999,77777,9,999999999,0,0,0,99,0.2,0,0
2023,1,11,24,60,9,18.4,15.0,81.0,101325,0,0,0,0,0,0,0,0,0,0,0,8.5,0,0,9999,77777,9,999999999,0,0,0,99,0.2,0,0
2023,1,12,1,60,9,18.5,15.4,82.0,101325,0,0,0,0,0,0,0,0,0,0,0,7.3,0,0,9999,77777,9,999999999,0,0,0,99,0.2,0,0
2023,1,12,2,60,9,16.9,14.7,87.0,101325,0,0,0,0,0,0,0,0,0,0,0,9.9,0,0,9999,77777,9,999999999,0,0,0,99,0.2,0,0
2023,1,12,3,60,9,16.7,14.8,88.0,101325,0,0,0,0,0,0,0,0,0,0,0,8.2,0,0,9999,77777,9,999999999,0,0,0,99,0.2,0,0
2023,1,12,4,60,9,19.5,14.6,73.0,101325,0,0,0,0,0,0,0,0,0,0,0,6.3,0,0,9999,77777,9,999999999,0,0,0,99,0.2,0,0
2023,1,12,5,60,9,22.1,13.8,59.0,101325,0,0,0,0,0,0,0,0,0,0,0,4.9,0,0,9999,77777,9,999999999,0,0,0,99,0.2,0,0
2023,1,12,6,60,9,25.1,12.5,46.0,101325,0,0,0,0,0,0,0,0,0,0,0,3.4,0,0,9999,77777,9,999999999,0,0,0,99,0.2,0,0
2023,1,12,7,60,9,27.2,12.3,40.0,101325,0,0,0,0,0,0,0,0,0,0,0,5.8,0,0,9999,77777,9,999999999,0,0,0,99,0.2,0,0
2023,1,12,8,60,9,28.2,13.4,40.0,101325,0,0,0,0,0,0,0,0,0,0,0,9.7,0,0,9999,77777,9,999999999,0,0,0,99,0.2,0,0
2023,1,12,9,60,9,27.9,15.9,48.0,101325,0,0,0,0,0,0,0,0,0,0,0,15.3,0,0,9999,77777,9,999999999,0,0,0,99,0.2,0,0
2023,1,12,10,60,9,27.2,17.3,55.0,101325,0,0,0,0,0,0,0,0,0,0,0,19.2,0,0,9999,77777,9,999999999,0,0,0,99,0.2,0,0
2023,1,12,11,60,9,26.8,16.9,55.0,101325,0,0,0,0,0,0,0,0,0,0,0,19.1,0,0,9999,77777,9,999999999,0,0,0,99,0.2,0,0
2023,1,12,12,60,9,26.0,17.0,57.0,101325,0,0,0,0,0,0,0,0,0,0,0,18.9,0,0,9999,77777,9,999999999,0,0,0,99,0.2,0,0
2023,1,12,13,60,9,24.4,18.6,70.0,101325,0,0,0,0,0,0,0,0,0,0,0,15.8,0,0,9999,77777,9,999999999,0,0,0,99,0.2,0,0
2023,1,12,14,60,9,23.0,19.4,80.0,101325,0,0,0,0,0,0,0,0,0,0,0,14.8,0,0,9999,77777,9,999999999,0,0,0,99,0.2,0,0
2023,1,12,15,60,9,22.5,20.6,89.0,101325,0,0,0,0,0,0,0,0,0,0,0,15.1,0,0,9999,77777,9,999999999,0,0,0,99,0.2,0,0
2023,1,12,16,60,9,22.2,20.9,93.0,101325,0,0,0,0,0,0,0,0,0,0,0,14.6,0,0,9999,77777,9,999999999,0,0,0,99,0.2,0,0
2023,1,12,17,60,9,22.0,20.8,93.0,101325,0,0,0,0,0,0,0,0,0,0,0,13.6,0,0,9999,77777,9,999999999,0,0,0,99,0.2,0,0
2023,1,12,18,60,9,22.0,20.5,91.0,101325,0,0,0,0,0,0,0,0,0,0,0,13.5,0,0,9999,77777,9,999999999,0,0,0,99,0.2,0,0
2023,1,12,19,60,9,22.1,20.0,88.0,101325,0,0,0,0,0,0,0,0,0,0,0,12.6,0,0,9999,77777,9,999999999,0,0,0,99,0.2,0,0
2023,1,12,20,60,9,21.4,20.1,92.0,101325,0,0,0,0,0,0,0,0,0,0,0,6.8,0,0,9999,77777,9,999999999,0,0,0,99,0.2,0,0
2023,1,12,21,60,9,20.1,19.5,96.0,101325,0,0,0,0,0,0,0,0,0,0,0,7.6,0,0,9999,77777,9,999999999,0,0,0,99,0.2,0,0
2023,1,12,22,60,9,20.8,20.2,96.0,101325,0,0,0,0,0,0,0,0,0,0,0,5.0,0,0,9999,77777,9,999999999,0,0,0,99,0.2,0,0
2023,1,12,23,60,9,21.1,20.4,96.0,101325,0,0,0,0,0,0,0,0,0,0,0,6.5,0,0,9999,77777,9,999999999,0,0,0,99,0.2,0,0
2023,1,12,24,60,9,21.0,20.2,95.0,101325,0,0,0,0,0,0,0,0,0,0,0,7.0,0,0,9999,77777,9,999999999,0,0,0,99,0.2,0,0
2023,1,13,1,60,9,20.8,20.0,95.0,101325,0,0,0,0,0,0,0,0,0,0,0,6.6,0,0,9999,77777,9,999999999,0,0,0,99,0.2,0,0
2023,1,13,2,60,9,20.1,19.6,97.0,101325,0,0,0,0,0,0,0,0,0,0,0,6.3,0,0,9999,77777,9,999999999,0,0,0,99,0.2,0,0
2023,1,13,3,60,9,19.5,18.9,96.0,101325,0,0,0,0,0,0,0,0,0,0,0,6.8,0,0,9999,77777,9,999999999,0,0,0,99,0.2,0,0
2023,1,13,4,60,9,20.7,18.8,89.0,101325,0,0,0,0,0,0,0,0,0,0,0,8.2,0,0,9999,77777,9,999999999,0,0,0,99,0.2,0,0
2023,1,13,5,60,9,23.0,18.1,74.0,101325,0,0,0,0,0,0,0,0,0,0,0,9.4,0,0,9999,77777,9,999999999,0,0,0,99,0.2,0,0
2023,1,13,6,60,9,24.8,14.4,52.0,101325,0,0,0,0,0,0,0,0,0,0,0,10.8,0,0,9999,77777,9,999999999,0,0,0,99,0.2,0,0
2023,1,13,7,60,9,25.8,13.0,45.0,101325,0,0,0,0,0,0,0,0,0,0,0,9.9,0,0,9999,77777,9,999999999,0,0,0,99,0.2,0,0
2023,1,13,8,60,9,26.6,12.7,42.0,101325,0,0,0,0,0,0,0,0,0,0,0,11.5,0,0,9999,77777,9,999999999,0,0,0,99,0.2,0,0
2023,1,13,9,60,9,26.5,13.3,44.0,101325,0,0,0,0,0,0,0,0,0,0,0,16.3,0,0,9999,77777,9,999999999,0,0,0,99,0.2,0,0
2023,1,13,10,60,9,25.5,13.4,47.0,101325,0,0,0,0,0,0,0,0,0,0,0,20.6,0,0,9999,77777,9,999999999,0,0,0,99,0.2,0,0
2023,1,13,11,60,9,24.8,13.6,50.0,101325,0,0,0,0,0,0,0,0,0,0,0,22.2,0,0,9999,77777,9,999999999,0,0,0,99,0.2,0,0
2023,1,13,12,60,9,24.0,14.8,57.0,101325,0,0,0,0,0,0,0,0,0,0,0,21.6,0,0,9999,77777,9,999999999,0,0,0,99,0.2,0,0
2023,1,13,13,60,9,22.8,16.1,66.0,101325,0,0,0,0,0,0,0,0,0,0,0,19.3,0,0,9999,77777,9,999999999,0,0,0,99,0.2,0,0
2023,1,13,14,60,9,21.6,17.0,75.0,101325,0,0,0,0,0,0,0,0,0,0,0,18.7,0,0,9999,77777,9,999999999,0,0,0,99,0.2,0,0
2023,1,13,15,60,9,21.2,17.2,78.0,101325,0,0,0,0,0,0,0,0,0,0,0,17.4,0,0,9999,77777,9,999999999,0,0,0,99,0.2,0,0
2023,1,13,16,60,9,20.8,17.2,80.0,101325,0,0,0,0,0,0,0,0,0,0,0,16.6,0,0,9999,77777,9,999999999,0,0,0,99,0.2,0,0
2023,1,13,17,60,9,20.5,17.1,81.0,101325,0,0,0,0,0,0,0,0,0,0,0,14.0,0,0,9999,77777,9,999999999,0,0,0,99,0.2,0,0
2023,1,13,18,60,9,20.0,17.1,83.0,101325,0,0,0,0,0,0,0,0,0,0,0,11.2,0,0,9999,77777,9,999999999,0,0,0,99,0.2,0,0
2023,1,13,19,60,9,19.5,17.0,85.0,101325,0,0,0,0,0,0,0,0,0,0,0,9.0,0,0,9999,77777,9,999999999,0,0,0,99,0.2,0,0
2023,1,13,20,60,9,18.9,16.8,87.0,101325,0,0,0,0,0,0,0,0,0,0,0,8.4,0,0,9999,77777,9,999999999,0,0,0,99,0.2,0,0
2023,1,13,21,60,9,18.3,16.3,88.0,101325,0,0,0,0,0,0,0,0,0,0,0,7.5,0,0,9999,77777,9,999999999,0,0,0,99,0.2,0,0
2023,1,13,22,60,9,17.9,14.7,82.0,101325,0,0,0,0,0,0,0,0,0,0,0,7.6,0,0,9999,77777,9,999999999,0,0,0,99,0.2,0,0
2023,1,13,23,60,9,17.5,13.3,76.0,101325,0,0,0,0,0,0,0,0,0,0,0,8.0,0,0,9999,77777,9,999999999,0,0,0,99,0.2,0,0
2023,1,13,24,60,9,16.8,13.0,78.0,101325,0,0,0,0,0,0,0,0,0,0,0,6.4,0,0,9999,77777,9,999999999,0,0,0,99,0.2,0,0
2023,1,14,1,60,9,16.9,14.0,83.0,101325,0,0,0,0,0,0,0,0,0,0,0,5.4,0,0,9999,77777,9,999999999,0,0,0,99,0.2,0,0
2023,1,14,2,60,9,15.8,13.8,88.0,101325,0,0,0,0,0,0,0,0,0,0,0,5.9,0,0,9999,77777,9,999999999,0,0,0,99,0.2,0,0
2023,1,14,3,60,9,15.9,14.1,89.0,101325,0,0,0,0,0,0,0,0,0,0,0,5.6,0,0,9999,77777,9,999999999,0,0,0,99,0.2,0,0
2023,1,14,4,60,9,18.3,13.7,75.0,101325,0,0,0,0,0,0,0,0,0,0,0,7.6,0,0,9999,77777,9,999999999,0,0,0,99,0.2,0,0
2023,1,14,5,60,9,20.3,12.5,61.0,101325,0,0,0,0,0,0,0,0,0,0,0,7.1,0,0,9999,77777,9,999999999,0,0,0,99,0.2,0,0
2023,1,14,6,60,9,22.5,11.8,51.0,101325,0,0,0,0,0,0,0,0,0,0,0,5.8,0,0,9999,77777,9,999999999,0,0,0,99,0.2,0,0
2023,1,14,7,60,9,24.5,11.2,43.0,101325,0,0,0,0,0,0,0,0,0,0,0,6.1,0,0,9999,77777,9,999999999,0,0,0,99,0.2,0,0
2023,1,14,8,60,9,25.7,11.3,41.0,101325,0,0,0,0,0,0,0,0,0,0,0,10.2,0,0,9999,77777,9,999999999,0,0,0,99,0.2,0,0
2023,1,14,9,60,9,26.0,12.0,42.0,101325,0,0,0,0,0,0,0,0,0,0,0,15.3,0,0,9999,77777,9,999999999,0,0,0,99,0.2,0,0
2023,1,14,10,60,9,25.6,12.9,45.0,101325,0,0,0,0,0,0,0,0,0,0,0,19.6,0,0,9999,77777,9,999999999,0,0,0,99,0.2,0,0
2023,1,14,11,60,9,25.1,13.1,47.0,101325,0,0,0,0,0,0,0,0,0,0,0,20.3,0,0,9999,77777,9,999999999,0,0,0,99,0.2,0,0
2023,1,14,12,60,9,24.5,13.0,49.0,101325,0,0,0,0,0,0,0,0,0,0,0,20.3,0,0,9999,77777,9,999999999,0,0,0,99,0.2,0,0
2023,1,14,13,60,9,22.8,12.4,52.0,101325,0,0,0,0,0,0,0,0,0,0,0,19.7,0,0,9999,77777,9,999999999,0,0,0,99,0.2,0,0
2023,1,14,14,60,9,21.6,13.2,59.0,101325,0,0,0,0,0,0,0,0,0,0,0,19.8,0,0,9999,77777,9,999999999,0,0,0,99,0.2,0,0
2023,1,14,15,60,9,21.2,13.5,62.0,101325,0,0,0,0,0,0,0,0,0,0,0,19.7,0,0,9999,77777,9,999999999,0,0,0,99,0.2,0,0
2023,1,14,16,60,9,20.7,13.5,63.0,101325,0,0,0,0,0,0,0,0,0,0,0,18.7,0,0,9999,77777,9,999999999,0,0,0,99,0.2,0,0
2023,1,14,17,60,9,20.1,13.2,64.0,101325,0,0,0,0,0,0,0,0,0,0,0,16.5,0,0,9999,77777,9,999999999,0,0,0,99,0.2,0,0
2023,1,14,18,60,9,19.5,12.8,65.0,101325,0,0,0,0,0,0,0,0,0,0,0,14.1,0,0,9999,77777,9,999999999,0,0,0,99,0.2,0,0
2023,1,14,19,60,9,19.0,12.4,66.0,101325,0,0,0,0,0,0,0,0,0,0,0,11.5,0,0,9999,77777,9,999999999,0,0,0,99,0.2,0,0
2023,1,14,20,60,9,18.0,11.9,68.0,101325,0,0,0,0,0,0,0,0,0,0,0,7.0,0,0,9999,77777,9,999999999,0,0,0,99,0.2,0,0
2023,1,14,21,60,9,16.7,12.1,74.0,101325,0,0,0,0,0,0,0,0,0,0,0,6.6,0,0,9999,77777,9,999999999,0,0,0,99,0.2,0,0
2023,1,14,22,60,9,15.8,12.0,78.0,101325,0,0,0,0,0,0,0,0,0,0,0,8.0,0,0,9999,77777,9,999999999,0,0,0,99,0.2,0,0
2023,1,14,23,60,9,15.2,11.8,80.0,101325,0,0,0,0,0,0,0,0,0,0,0,8.8,0,0,9999,77777,9,999999999,0,0,0,99,0.2,0,0
2023,1,14,24,60,9,14.8,12.1,84.0,101325,0,0,0,0,0,0,0,0,0,0,0,8.4,0,0,9999,77777,9,999999999,0,0,0,99,0.2,0,0
2023,1,15,1,60,9,16.0,12.2,78.0,101325,0,0,0,0,0,0,0,0,0,0,0,5.8,0,0,9999,77777,9,999999999,0,0,0,99,0.2,0,0
2023,1,15,2,60,9,15.2,12.5,84.0,101325,0,0,0,0,0,0,0,0,0,0,0,6.5,0,0,9999,77777,9,999999999,0,0,0,99,0.2,0,0
2023,1,15,3,60,9,14.9,12.5,85.0,101325,0,0,0,0,0,0,0,0,0,0,0,6.3,0,0,9999,77777,9,999999999,0,0,0,99,0.2,0,0
2023,1,15,4,60,9,17.5,11.9,70.0,101325,0,0,0,0,0,0,0,0,0,0,0,7.4,0,0,9999,77777,9,999999999,0,0,0,99,0.2,0,0
2023,1,15,5,60,9,19.7,11.6,60.0,101325,0,0,0,0,0,0,0,0,0,0,0,6.2,0,0,9999,77777,9,999999999,0,0,0,99,0.2,0,0
2023,1,15,6,60,9,22.8,11.7,50.0,101325,0,0,0,0,0,0,0,0,0,0,0,4.5,0,0,9999,77777,9,999999999,0,0,0,99,0.2,0,0
2023,1,15,7,60,9,25.1,11.8,44.0,101325,0,0,0,0,0,0,0,0,0,0,0,5.9,0,0,9999,77777,9,999999999,0,0,0,99,0.2,0,0
2023,1,15,8,60,9,25.6,13.4,47.0,101325,0,0,0,0,0,0,0,0,0,0,0,12.3,0,0,9999,77777,9,999999999,0,0,0,99,0.2,0,0
2023,1,15,9,60,9,25.8,13.8,47.0,101325,0,0,0,0,0,0,0,0,0,0,0,15.9,0,0,9999,77777,9,999999999,0,0,0,99,0.2,0,0
2023,1,15,10,60,9,25.8,13.6,47.0,101325,0,0,0,0,0,0,0,0,0,0,0,17.1,0,0,9999,77777,9,999999999,0,0,0,99,0.2,0,0
2023,1,15,11,60,9,25.2,14.2,51.0,101325,0,0,0,0,0,0,0,0,0,0,0,19.1,0,0,9999,77777,9,999999999,0,0,0,99,0.2,0,0
2023,1,15,12,60,9,24.2,14.8,56.0,101325,0,0,0,0,0,0,0,0,0,0,0,19.7,0,0,9999,77777,9,999999999,0,0,0,99,0.2,0,0
2023,1,15,13,60,9,23.2,15.8,63.0,101325,0,0,0,0,0,0,0,0,0,0,0,16.9,0,0,9999,77777,9,999999999,0,0,0,99,0.2,0,0
2023,1,15,14,60,9,21.9,17.3,75.0,101325,0,0,0,0,0,0,0,0,0,0,0,15.7,0,0,9999,77777,9,999999999,0,0,0,99,0.2,0,0
2023,1,15,15,60,9,21.4,17.4,78.0,101325,0,0,0,0,0,0,0,0,0,0,0,14.7,0,0,9999,77777,9,999999999,0,0,0,99,0.2,0,0
2023,1,15,16,60,9,20.9,17.4,80.0,101325,0,0,0,0,0,0,0,0,0,0,0,11.0,0,0,9999,77777,9,999999999,0,0,0,99,0.2,0,0
2023,1,15,17,60,9,20.1,17.4,84.0,101325,0,0,0,0,0,0,0,0,0,0,0,8.4,0,0,9999,77777,9,999999999,0,0,0,99,0.2,0,0
2023,1,15,18,60,9,19.0,17.2,89.0,101325,0,0,0,0,0,0,0,0,0,0,0,6.5,0,0,9999,77777,9,999999999,0,0,0,99,0.2,0,0
2023,1,15,19,60,9,18.1,16.4,90.0,101325,0,0,0,0,0,0,0,0,0,0,0,6.7,0,0,9999,77777,9,999999999,0,0,0,99,0.2,0,0
2023,1,15,20,60,9,17.3,15.5,89.0,101325,0,0,0,0,0,0,0,0,0,0,0,8.7,0,0,9999,77777,9,999999999,0,0,0,99,0.2,0,0
2023,1,15,21,60,9,16.8,14.9,89.0,101325,0,0,0,0,0,0,0,0,0,0,0,9.4,0,0,9999,77777,9,999999999,0,0,0,99,0.2,0,0
2023,1,15,22,60,9,16.5,14.9,90.0,101325,0,0,0,0,0,0,0,0,0,0,0,8.7,0,0,9999,77777,9,999999999,0,0,0,99,0.2,0,0
2023,1,15,23,60,9,16.6,14.9,89.0,101325,0,0,0,0,0,0,0,0,0,0,0,7.6,0,0,9999,77777,9,999999999,0,0,0,99,0.2,0,0
2023,1,15,24,60,9,16.4,14.6,89.0,101325,0,0,0,0,0,0,0,0,0,0,0,7.2,0,0,9999,77777,9,999999999,0,0,0,99,0.2,0,0
2023,1,16,1,60,9,16.2,15.2,94.0,101325,0,0,0,0,0,0,0,0,0,0,0,6.8,0,0,9999,77777,9,999999999,0,0,0,99,0.2,0,0
2023,1,16,2,60,9,14.7,14.2,97.0,101325,0,0,0,0,0,0,0,0,0,0,0,7.4,0,0,9999,77777,9,999999999,0,0,0,99,0.2,0,0
2023,1,16,3,60,9,14.6,13.9,96.0,101325,0,0,0,0,0,0,0,0,0,0,0,6.3,0,0,9999,77777,9,999999999,0,0,0,99,0.2,0,0
2023,1,16,4,60,9,17.3,15.2,88.0,101325,0,0,0,0,0,0,0,0,0,0,0,4.1,0,0,9999,77777,9,999999999,0,0,0,99,0.2,0,0
2023,1,16,5,60,9,19.7,15.2,75.0,101325,0,0,0,0,0,0,0,0,0,0,0,3.4,0,0,9999,77777,9,999999999,0,0,0,99,0.2,0,0
2023,1,16,6,60,9,22.5,15.1,63.0,101325,0,0,0,0,0,0,0,0,0,0,0,1.8,0,0,9999,77777,9,999999999,0,0,0,99,0.2,0,0
2023,1,16,7,60,9,24.6,14.3,53.0,101325,0,0,0,0,0,0,0,0,0,0,0,2.1,0,0,9999,77777,9,999999999,0,0,0,99,0.2,0,0
2023,1,16,8,60,9,25.7,14.7,51.0,101325,0,0,0,0,0,0,0,0,0,0,0,7.6,0,0,9999,77777,9,999999999,0,0,0,99,0.2,0,0
2023,1,16,9,60,9,25.7,15.9,55.0,101325,0,0,0,0,0,0,0,0,0,0,0,12.3,0,0,9999,77777,9,999999999,0,0,0,99,0.2,0,0
2023,1,16,10,60,9,25.6,15.8,55.0,101325,0,0,0,0,0,0,0,0,0,0,0,13.6,0,0,9999,77777,9,999999999,0,0,0,99,0.2,0,0
2023,1,16,11,60,9,25.5,14.9,52.0,101325,0,0,0,0,0,0,0,0,0,0,0,13.8,0,0,9999,77777,9,999999999,0,0,0,99,0.2,0,0
2023,1,16,12,60,9,24.8,14.3,52.0,101325,0,0,0,0,0,0,0,0,0,0,0,14.5,0,0,9999,77777,9,999999999,0,0,0,99,0.2,0,0
2023,1,16,13,60,9,23.5,14.9,59.0,101325,0,0,0,0,0,0,0,0,0,0,0,13.8,0,0,9999,77777,9,999999999,0,0,0,99,0.2,0,0
2023,1,16,14,60,9,21.7,17.0,75.0,101325,0,0,0,0,0,0,0,0,0,0,0,13.8,0,0,9999,77777,9,999999999,0,0,0,99,0.2,0,0
2023,1,16,15,60,9,20.9,17.8,82.0,101325,0,0,0,0,0,0,0,0,0,0,0,14.3,0,0,9999,77777,9,999999999,0,0,0,99,0.2,0,0
2023,1,16,16,60,9,20.4,17.8,85.0,101325,0,0,0,0,0,0,0,0,0,0,0,14.0,0,0,9999,77777,9,999999999,0,0,0,99,0.2,0,0
2023,1,16,17,60,9,19.9,17.1,84.0,101325,0,0,0,0,0,0,0,0,0,0,0,11.8,0,0,9999,77777,9,999999999,0,0,0,99,0.2,0,0
2023,1,16,18,60,9,18.6,15.8,84.0,101325,0,0,0,0,0,0,0,0,0,0,0,6.6,0,0,9999,77777,9,999999999,0,0,0,99,0.2,0,0
2023,1,16,19,60,9,17.2,15.0,87.0,101325,0,0,0,0,0,0,0,0,0,0,0,8.3,0,0,9999,77777,9,999999999,0,0,0,99,0.2,0,0
2023,1,16,20,60,9,16.8,14.8,88.0,101325,0,0,0,0,0,0,0,0,0,0,0,8.1,0,0,9999,77777,9,999999999,0,0,0,99,0.2,0,0
2023,1,16,21,60,9,16.8,14.5,86.0,101325,0,0,0,0,0,0,0,0,0,0,0,7.6,0,0,9999,77777,9,999999999,0,0,0,99,0.2,0,0
2023,1,16,22,60,9,16.0,14.0,88.0,101325,0,0,0,0,0,0,0,0,0,0,0,9.0,0,0,9999,77777,9,999999999,0,0,0,99,0.2,0,0
2023,1,16,23,60,9,16.4,14.0,86.0,101325,0,0,0,0,0,0,0,0,0,0,0,7.3,0,0,9999,77777,9,999999999,0,0,0,99,0.2,0,0
2023,1,16,24,60,9,17.8,15.3,85.0,101325,0,0,0,0,0,0,0,0,0,0,0,4.9,0,0,9999,77777,9,999999999,0,0,0,99,0.2,0,0
2023,1,17,1,60,9,16.7,14.9,89.0,101325,0,0,0,0,0,0,0,0,0,0,0,4.9,0,0,9999,77777,9,999999999,0,0,0,99,0.2,0,0
2023,1,17,2,60,9,16.0,14.4,90.0,101325,0,0,0,0,0,0,0,0,0,0,0,5.6,0,0,9999,77777,9,999999999,0,0,0,99,0.2,0,0
2023,1,17,3,60,9,16.8,14.9,89.0,101325,0,0,0,0,0,0,0,0,0,0,0,5.5,0,0,9999,77777,9,999999999,0,0,0,99,0.2,0,0
2023,1,17,4,60,9,18.4,16.1,86.0,101325,0,0,0,0,0,0,0,0,0,0,0,5.8,0,0,9999,77777,9,999999999,0,0,0,99,0.2,0,0
2023,1,17,5,60,9,20.8,14.3,66.0,101325,0,0,0,0,0,0,0,0,0,0,0,5.6,0,0,9999,77777,9,999999999,0,0,0,99,0.2,0,0
2023,1,17,6,60,9,23.4,14.0,56.0,101325,0,0,0,0,0,0,0,0,0,0,0,3.6,0,0,9999,77777,9,999999999,0,0,0,99,0.2,0,0
2023,1,17,7,60,9,25.7,13.9,48.0,101325,0,0,0,0,0,0,0,0,0,0,0,2.8,0,0,9999,77777,9,999999999,0,0,0,99,0.2,0,0
2023,1,17,8,60,9,27.0,14.3,46.0,101325,0,0,0,0,0,0,0,0,0,0,0,7.4,0,0,9999,77777,9,999999999,0,0,0,99,0.2,0,0
2023,1,17,9,60,9,27.0,15.7,50.0,101325,0,0,0,0,0,0,0,0,0,0,0,12.2,0,0,9999,77777,9,999999999,0,0,0,99,0.2,0,0
2023,1,17,10,60,9,26.7,15.8,51.0,101325,0,0,0,0,0,0,0,0,0,0,0,14.3,0,0,9999,77777,9,999999999,0,0,0,99,0.2,0,0
2023,1,17,11,60,9,26.3,15.3,51.0,101325,0,0,0,0,0,0,0,0,0,0,0,15.2,0,0,9999,77777,9,999999999,0,0,0,99,0.2,0,0
2023,1,17,12,60,9,25.5,15.3,53.0,101325,0,0,0,0,0,0,0,0,0,0,0,15.0,0,0,9999,77777,9,999999999,0,0,0,99,0.2,0,0
2023,1,17,13,60,9,24.0,16.1,61.0,101325,0,0,0,0,0,0,0,0,0,0,0,14.1,0,0,9999,77777,9,999999999,0,0,0,99,0.2,0,0
2023,1,17,14,60,9,22.2,17.9,77.0,101325,0,0,0,0,0,0,0,0,0,0,0,13.5,0,0,9999,77777,9,999999999,0,0,0,99,0.2,0,0
2023,1,17,15,60,9,21.4,18.8,85.0,101325,0,0,0,0,0,0,0,0,0,0,0,13.2,0,0,9999,77777,9,999999999,0,0,0,99,0.2,0,0
2023,1,17,16,60,9,20.9,18.5,86.0,101325,0,0,0,0,0,0,0,0,0,0,0,12.1,0,0,9999,77777,9,999999999,0,0,0,99,0.2,0,0
2023,1,17,17,60,9,20.2,18.0,87.0,101325,0,0,0,0,0,0,0,0,0,0,0,8.9,0,0,9999,77777,9,999999999,0,0,0,99,0.2,0,0
2023,1,17,18,60,9,18.6,17.0,91.0,101325,0,0,0,0,0,0,0,0,0,0,0,7.0,0,0,9999,77777,9,999999999,0,0,0,99,0.2,0,0
2023,1,17,19,60,9,17.6,16.1,91.0,101325,0,0,0,0,0,0,0,0,0,0,0,8.0,0,0,9999,77777,9,999999999,0,0,0,99,0.2,0,0
2023,1,17,20,60,9,17.6,15.4,87.0,101325,0,0,0,0,0,0,0,0,0,0,0,8.4,0,0,9999,77777,9,999999999,0,0,0,99,0.2,0,0
2023,1,17,21,60,9,19.3,15.4,78.0,101325,0,0,0,0,0,0,0,0,0,0,0,6.5,0,0,9999,77777,9,999999999,0,0,0,99,0.2,0,0
2023,1,17,22,60,9,19.7,15.7,78.0,101325,0,0,0,0,0,0,0,0,0,0,0,4.7,0,0,9999,77777,9,999999999,0,0,0,99,0.2,0,0
2023,1,17,23,60,9,19.1,16.1,83.0,101325,0,0,0,0,0,0,0,0,0,0,0,3.5,0,0,9999,77777,9,999999999,0,0,0,99,0.2,0,0
2023,1,17,24,60,9,18.6,16.5,88.0,101325,0,0,0,0,0,0,0,0,0,0,0,4.4,0,0,9999,77777,9,999999999,0,0,0,99,0.2,0,0
2023,1,18,1,60,9,16.4,15.4,94.0,101325,0,0,0,0,0,0,0,0,0,0,0,7.7,0,0,9999,77777,9,999999999,0,0,0,99,0.2,0,0
2023,1,18,2,60,9,15.8,13.9,89.0,101325,0,0,0,0,0,0,0,0,0,0,0,7.1,0,0,9999,77777,9,999999999,0,0,0,99,0.2,0,0
2023,1,18,3,60,9,15.1,13.7,91.0,101325,0,0,0,0,0,0,0,0,0,0,0,7.8,0,0,9999,77777,9,999999999,0,0,0,99,0.2,0,0
2023,1,18,4,60,9,18.5,15.3,81.0,101325,0,0,0,0,0,0,0,0,0,0,0,5.6,0,0,9999,77777,9,999999999,0,0,0,99,0.2,0,0
2023,1,18,5,60,9,21.4,15.2,68.0,101325,0,0,0,0,0,0,0,0,0,0,0,5.4,0,0,9999,77777,9,999999999,0,0,0,99,0.2,0,0
2023,1,18,6,60,9,24.7,14.7,54.0,101325,0,0,0,0,0,0,0,0,0,0,0,4.7,0,0,9999,77777,9,999999999,0,0,0,99,0.2,0,0
2023,1,18,7,60,9,27.6,14.0,43.0,101325,0,0,0,0,0,0,0,0,0,0,0,2.5,0,0,9999,77777,9,999999999,0,0,0,99,0.2,0,0
2023,1,18,8,60,9,29.2,12.3,35.0,101325,0,0,0,0,0,0,0,0,0,0,0,3.6,0,0,9999,77777,9,999999999,0,0,0,99,0.2,0,0
2023,1,18,9,60,9,29.3,13.8,39.0,101325,0,0,0,0,0,0,0,0,0,0,0,8.8,0,0,9999,77777,9,999999999,0,0,0,99,0.2,0,0
2023,1,18,10,60,9,28.5,15.7,46.0,101325,0,0,0,0,0,0,0,0,0,0,0,11.5,0,0,9999,77777,9,999999999,0,0,0,99,0.2,0,0
2023,1,18,11,60,9,27.6,16.4,50.0,101325,0,0,0,0,0,0,0,0,0,0,0,12.8,0,0,9999,77777,9,999999999,0,0,0,99,0.2,0,0
2023,1,18,12,60,9,26.5,15.9,52.0,101325,0,0,0,0,0,0,0,0,0,0,0,12.6,0,0,9999,77777,9,999999999,0,0,0,99,0.2,0,0
2023,1,18,13,60,9,24.8,17.4,63.0,101325,0,0,0,0,0,0,0,0,0,0,0,13.3,0,0,9999,77777,9,999999999,0,0,0,99,0.2,0,0
2023,1,18,14,60,9,22.8,18.7,78.0,101325,0,0,0,0,0,0,0,0,0,0,0,12.5,0,0,9999,77777,9,999999999,0,0,0,99,0.2,0,0
2023,1,18,15,60,9,21.9,19.3,85.0,101325,0,0,0,0,0,0,0,0,0,0,0,13.7,0,0,9999,77777,9,999999999,0,0,0,99,0.2,0,0
2023,1,18,16,60,9,21.4,19.2,88.0,101325,0,0,0,0,0,0,0,0,0,0,0,12.6,0,0,9999,77777,9,999999999,0,0,0,99,0.2,0,0
2023,1,18,17,60,9,20.4,18.5,89.0,101325,0,0,0,0,0,0,0,0,0,0,0,7.3,0,0,9999,77777,9,999999999,0,0,0,99,0.2,0,0
2023,1,18,18,60,9,18.7,17.1,90.0,101325,0,0,0,0,0,0,0,0,0,0,0,7.1,0,0,9999,77777,9,999999999,0,0,0,99,0.2,0,0
2023,1,18,19,60,9,20.4,16.6,79.0,101325,0,0,0,0,0,0,0,0,0,0,0,6.6,0,0,9999,77777,9,999999999,0,0,0,99,0.2,0,0
2023,1,18,20,60,9,20.3,16.4,79.0,101325,0,0,0,0,0,0,0,0,0,0,0,3.6,0,0,9999,77777,9,999999999,0,0,0,99,0.2,0,0
2023,1,18,21,60,9,20.3,16.8,80.0,101325,0,0,0,0,0,0,0,0,0,0,0,0.8,0,0,9999,77777,9,999999999,0,0,0,99,0.2,0,0
2023,1,18,22,60,9,19.9,17.3,85.0,101325,0,0,0,0,0,0,0,0,0,0,0,0.5,0,0,9999,77777,9,999999999,0,0,0,99,0.2,0,0
2023,1,18,23,60,9,19.5,16.6,83.0,101325,0,0,0,0,0,0,0,0,0,0,0,2.3,0,0,9999,77777,9,999999999,0,0,0,99,0.2,0,0
2023,1,18,24,60,9,18.9,17.2,90.0,101325,0,0,0,0,0,0,0,0,0,0,0,3.8,0,0,9999,77777,9,999999999,0,0,0,99,0.2,0,0
2023,1,19,1,60,9,19.4,16.2,82.0,101325,0,0,0,0,0,0,0,0,0,0,0,3.4,0,0,9999,77777,9,999999999,0,0,0,99,0.2,0,0
2023,1,19,2,60,9,19.6,15.9,79.0,101325,0,0,0,0,0,0,0,0,0,0,0,5.8,0,0,9999,77777,9,999999999,0,0,0,99,0.2,0,0
2023,1,19,3,60,9,16.3,14.8,91.0,101325,0,0,0,0,0,0,0,0,0,0,0,6.4,0,0,9999,77777,9,999999999,0,0,0,99,0.2,0,0
2023,1,19,4,60,9,18.5,16.1,86.0,101325,0,0,0,0,0,0,0,0,0,0,0,5.9,0,0,9999,77777,9,999999999,0,0,0,99,0.2,0,0
2023,1,19,5,60,9,21.2,14.9,67.0,101325,0,0,0,0,0,0,0,0,0,0,0,4.1,0,0,9999,77777,9,999999999,0,0,0,99,0.2,0,0
2023,1,19,6,60,9,24.5,13.7,51.0,101325,0,0,0,0,0,0,0,0,0,0,0,3.3,0,0,9999,77777,9,999999999,0,0,0,99,0.2,0,0
2023,1,19,7,60,9,26.8,13.0,42.0,101325,0,0,0,0,0,0,0,0,0,0,0,3.1,0,0,9999,77777,9,999999999,0,0,0,99,0.2,0,0
2023,1,19,8,60,9,28.0,14.1,43.0,101325,0,0,0,0,0,0,0,0,0,0,0,7.6,0,0,9999,77777,9,999999999,0,0,0,99,0.2,0,0
2023,1,19,9,60,9,27.9,15.5,47.0,101325,0,0,0,0,0,0,0,0,0,0,0,10.9,0,0,9999,77777,9,999999999,0,0,0,99,0.2,0,0
2023,1,19,10,60,9,27.8,14.5,44.0,101325,0,0,0,0,0,0,0,0,0,0,0,11.9,0,0,9999,77777,9,999999999,0,0,0,99,0.2,0,0
2023,1,19,11,60,9,27.4,14.5,45.0,101325,0,0,0,0,0,0,0,0,0,0,0,12.1,0,0,9999,77777,9,999999999,0,0,0,99,0.2,0,0
2023,1,19,12,60,9,26.6,16.5,54.0,101325,0,0,0,0,0,0,0,0,0,0,0,12.0,0,0,9999,77777,9,999999999,0,0,0,99,0.2,0,0
2023,1,19,13,60,9,24.9,18.1,66.0,101325,0,0,0,0,0,0,0,0,0,0,0,12.5,0,0,9999,77777,9,999999999,0,0,0,99,0.2,0,0
2023,1,19,14,60,9,23.1,19.0,78.0,101325,0,0,0,0,0,0,0,0,0,0,0,11.6,0,0,9999,77777,9,999999999,0,0,0,99,0.2,0,0
2023,1,19,15,60,9,22.2,19.4,84.0,101325,0,0,0,0,0,0,0,0,0,0,0,11.8,0,0,9999,77777,9,999999999,0,0,0,99,0.2,0,0
2023,1,19,16,60,9,21.8,19.5,87.0,101325,0,0,0,0,0,0,0,0,0,0,0,11.8,0,0,9999,77777,9,999999999,0,0,0,99,0.2,0,0
2023,1,19,17,60,9,21.2,19.4,89.0,101325,0,0,0,0,0,0,0,0,0,0,0,8.1,0,0,9999,77777,9,999999999,0,0,0,99,0.2,0,0
2023,1,19,18,60,9,19.4,18.3,94.0,101325,0,0,0,0,0,0,0,0,0,0,0,6.7,0,0,9999,77777,9,999999999,0,0,0,99,0.2,0,0
2023,1,19,19,60,9,18.3,17.2,94.0,101325,0,0,0,0,0,0,0,0,0,0,0,8.4,0,0,9999,77777,9,999999999,0,0,0,99,0.2,0,0
2023,1,19,20,60,9,18.3,16.8,91.0,101325,0,0,0,0,0,0,0,0,0,0,0,7.6,0,0,9999,77777,9,999999999,0,0,0,99,0.2,0,0
2023,1,19,21,60,9,17.7,15.8,89.0,101325,0,0,0,0,0,0,0,0,0,0,0,9.4,0,0,9999,77777,9,999999999,0,0,0,99,0.2,0,0
2023,1,19,22,60,9,17.6,15.3,86.0,101325,0,0,0,0,0,0,0,0,0,0,0,9.9,0,0,9999,77777,9,999999999,0,0,0,99,0.2,0,0
2023,1,19,23,60,9,16.9,14.7,87.0,101325,0,0,0,0,0,0,0,0,0,0,0,10.8,0,0,9999,77777,9,999999999,0,0,0,99,0.2,0,0
2023,1,19,24,60,9,18.1,15.1,83.0,101325,0,0,0,0,0,0,0,0,0,0,0,8.2,0,0,9999,77777,9,999999999,0,0,0,99,0.2,0,0
2023,1,20,1,60,9,19.2,17.6,90.0,101325,0,0,0,0,0,0,0,0,0,0,0,8.2,0,0,9999,77777,9,999999999,0,0,0,99,0.2,0,0
2023,1,20,2,60,9,18.4,17.1,92.0,101325,0,0,0,0,0,0,0,0,0,0,0,7.3,0,0,9999,77777,9,999999999,0,0,0,99,0.2,0,0
2023,1,20,3,60,9,17.7,16.4,92.0,101325,0,0,0,0,0,0,0,0,0,0,0,7.1,0,0,9999,77777,9,999999999,0,0,0,99,0.2,0,0
2023,1,20,4,60,9,18.4,15.9,85.0,101325,0,0,0,0,0,0,0,0,0,0,0,7.4,0,0,9999,77777,9,999999999,0,0,0,99,0.2,0,0
2023,1,20,5,60,9,19.9,15.9,78.0,101325,0,0,0,0,0,0,0,0,0,0,0,4.8,0,0,9999,77777,9,999999999,0,0,0,99,0.2,0,0
2023,1,20,6,60,9,23.6,14.3,56.0,101325,0,0,0,0,0,0,0,0,0,0,0,2.9,0,0,9999,77777,9,999999999,0,0,0,99,0.2,0,0
2023,1,20,7,60,9,26.2,11.1,39.0,101325,0,0,0,0,0,0,0,0,0,0,0,3.6,0,0,9999,77777,9,999999999,0,0,0,99,0.2,0,0
2023,1,20,8,60,9,27.5,11.4,37.0,101325,0,0,0,0,0,0,0,0,0,0,0,9.8,0,0,9999,77777,9,999999999,0,0,0,99,0.2,0,0
2023,1,20,9,60,9,27.4,12.6,40.0,101325,0,0,0,0,0,0,0,0,0,0,0,14.6,0,0,9999,77777,9,999999999,0,0,0,99,0.2,0,0
2023,1,20,10,60,9,27.2,12.1,39.0,101325,0,0,0,0,0,0,0,0,0,0,0,16.6,0,0,9999,77777,9,999999999,0,0,0,99,0.2,0,0
2023,1,20,11,60,9,26.7,14.3,47.0,101325,0,0,0,0,0,0,0,0,0,0,0,15.9,0,0,9999,77777,9,999999999,0,0,0,99,0.2,0,0
2023,1,20,12,60,9,26.2,14.5,48.0,101325,0,0,0,0,0,0,0,0,0,0,0,14.8,0,0,9999,77777,9,999999999,0,0,0,99,0.2,0,0
2023,1,20,13,60,9,25.0,15.8,56.0,101325,0,0,0,0,0,0,0,0,0,0,0,12.0,0,0,9999,77777,9,999999999,0,0,0,99,0.2,0,0
2023,1,20,14,60,9,23.3,17.5,70.0,101325,0,0,0,0,0,0,0,0,0,0,0,10.0,0,0,9999,77777,9,999999999,0,0,0,99,0.2,0,0
2023,1,20,15,60,9,22.4,18.8,80.0,101325,0,0,0,0,0,0,0,0,0,0,0,10.0,0,0,9999,77777,9,999999999,0,0,0,99,0.2,0,0
2023,1,20,16,60,9,21.9,19.0,84.0,101325,0,0,0,0,0,0,0,0,0,0,0,8.7,0,0,9999,77777,9,999999999,0,0,0,99,0.2,0,0
2023,1,20,17,60,9,21.2,19.5,90.0,101325,0,0,0,0,0,0,0,0,0,0,0,7.7,0,0,9999,77777,9,999999999,0,0,0,99,0.2,0,0
2023,1,20,18,60,9,20.6,19.6,94.0,101325,0,0,0,0,0,0,0,0,0,0,0,6.8,0,0,9999,77777,9,999999999,0,0,0,99,0.2,0,0
2023,1,20,19,60,9,19.8,19.0,95.0,101325,0,0,0,0,0,0,0,0,0,0,0,5.9,0,0,9999,77777,9,999999999,0,0,0,99,0.2,0,0
2023,1,20,20,60,9,18.4,17.6,95.0,101325,0,0,0,0,0,0,0,0,0,0,0,7.9,0,0,9999,77777,9,999999999,0,0,0,99,0.2,0,0
2023,1,20,21,60,9,18.9,17.7,92.0,101325,0,0,0,0,0,0,0,0,0,0,0,6.7,0,0,9999,77777,9,999999999,0,0,0,99,0.2,0,0
2023,1,20,22,60,9,18.4,17.2,93.0,101325,0,0,0,0,0,0,0,0,0,0,0,7.9,0,0,9999,77777,9,999999999,0,0,0,99,0.2,0,0
2023,1,20,23,60,9,17.7,16.8,94.0,101325,0,0,0,0,0,0,0,0,0,0,0,7.5,0,0,9999,77777,9,999999999,0,0,0,99,0.2,0,0
2023,1,20,24,60,9,18.6,17.1,91.0,101325,0,0,0,0,0,0,0,0,0,0,0,7.6,0,0,9999,77777,9,999999999,0,0,0,99,0.2,0,0
2023,1,21,1,60,9,19.2,17.9,92.0,101325,0,0,0,0,0,0,0,0,0,0,0,8.0,0,0,9999,77777,9,999999999,0,0,0,99,0.2,0,0
2023,1,21,2,60,9,18.5,17.4,93.0,101325,0,0,0,0,0,0,0,0,0,0,0,6.9,0,0,9999,77777,9,999999999,0,0,0,99,0.2,0,0
2023,1,21,3,60,9,18.1,16.8,92.0,101325,0,0,0,0,0,0,0,0,0,0,0,7.6,0,0,9999,77777,9,999999999,0,0,0,99,0.2,0,0
2023,1,21,4,60,9,19.2,16.1,82.0,101325,0,0,0,0,0,0,0,0,0,0,0,8.2,0,0,9999,77777,9,999999999,0,0,0,99,0.2,0,0
2023,1,21,5,60,9,21.4,15.4,69.0,101325,0,0,0,0,0,0,0,0,0,0,0,5.8,0,0,9999,77777,9,999999999,0,0,0,99,0.2,0,0
2023,1,21,6,60,9,24.2,14.3,54.0,101325,0,0,0,0,0,0,0,0,0,0,0,4.1,0,0,9999,77777,9,999999999,0,0,0,99,0.2,0,0
2023,1,21,7,60,9,26.3,12.7,43.0,101325,0,0,0,0,0,0,0,0,0,0,0,4.1,0,0,9999,77777,9,999999999,0,0,0,99,0.2,0,0
2023,1,21,8,60,9,27.3,13.8,44.0,101325,0,0,0,0,0,0,0,0,0,0,0,9.2,0,0,9999,77777,9,999999999,0,0,0,99,0.2,0,0
2023,1,21,9,60,9,27.3,15.2,48.0,101325,0,0,0,0,0,0,0,0,0,0,0,13.5,0,0,9999,77777,9,999999999,0,0,0,99,0.2,0,0
2023,1,21,10,60,9,26.9,14.4,46.0,101325,0,0,0,0,0,0,0,0,0,0,0,16.3,0,0,9999,77777,9,999999999,0,0,0,99,0.2,0,0
2023,1,21,11,60,9,26.2,13.1,44.0,101325,0,0,0,0,0,0,0,0,0,0,0,18.6,0,0,9999,77777,9,999999999,0,0,0,99,0.2,0,0
2023,1,21,12,60,9,25.5,13.1,46.0,101325,0,0,0,0,0,0,0,0,0,0,0,18.9,0,0,9999,77777,9,999999999,0,0,0,99,0.2,0,0
2023,1,21,13,60,9,24.1,14.2,54.0,101325,0,0,0,0,0,0,0,0,0,0,0,17.7,0,0,9999,77777,9,999999999,0,0,0,99,0.2,0,0
2023,1,21,14,60,9,22.8,16.3,67.0,101325,0,0,0,0,0,0,0,0,0,0,0,15.8,0,0,9999,77777,9,999999999,0,0,0,99,0.2,0,0
2023,1,21,15,60,9,22.3,17.0,72.0,101325,0,0,0,0,0,0,0,0,0,0,0,16.8,0,0,9999,77777,9,999999999,0,0,0,99,0.2,0,0
2023,1,21,16,60,9,22.0,16.6,71.0,101325,0,0,0,0,0,0,0,0,0,0,0,15.8,0,0,9999,77777,9,999999999,0,0,0,99,0.2,0,0
2023,1,21,17,60,9,21.7,15.4,68.0,101325,0,0,0,0,0,0,0,0,0,0,0,13.5,0,0,9999,77777,9,999999999,0,0,0,99,0.2,0,0
2023,1,21,18,60,9,21.0,14.2,65.0,101325,0,0,0,0,0,0,0,0,0,0,0,9.4,0,0,9999,77777,9,999999999,0,0,0,99,0.2,0,0
2023,1,21,19,60,9,20.1,13.8,67.0,101325,0,0,0,0,0,0,0,0,0,0,0,7.6,0,0,9999,77777,9,999999999,0,0,0,99,0.2,0,0
2023,1,21,20,60,9,19.8,14.4,71.0,101325,0,0,0,0,0,0,0,0,0,0,0,7.6,0,0,9999,77777,9,999999999,0,0,0,99,0.2,0,0
2023,1,21,21,60,9,19.7,15.7,78.0,101325,0,0,0,0,0,0,0,0,0,0,0,8.3,0,0,9999,77777,9,999999999,0,0,0,99,0.2,0,0
2023,1,21,22,60,9,19.3,16.2,82.0,101325,0,0,0,0,0,0,0,0,0,0,0,7.6,0,0,9999,77777,9,999999999,0,0,0,99,0.2,0,0
2023,1,21,23,60,9,18.5,16.0,85.0,101325,0,0,0,0,0,0,0,0,0,0,0,6.5,0,0,9999,77777,9,999999999,0,0,0,99,0.2,0,0
2023,1,21,24,60,9,18.0,15.4,85.0,101325,0,0,0,0,0,0,0,0,0,0,0,6.4,0,0,9999,77777,9,999999999,0,0,0,99,0.2,0,0
2023,1,22,1,60,9,18.8,15.7,82.0,101325,0,0,0,0,0,0,0,0,0,0,0,8.4,0,0,9999,77777,9,999999999,0,0,0,99,0.2,0,0
2023,1,22,2,60,9,18.3,15.1,81.0,101325,0,0,0,0,0,0,0,0,0,0,0,8.7,0,0,9999,77777,9,999999999,0,0,0,99,0.2,0,0
2023,1,22,3,60,9,18.5,14.3,77.0,101325,0,0,0,0,0,0,0,0,0,0,0,9.5,0,0,9999,77777,9,999999999,0,0,0,99,0.2,0,0
2023,1,22,4,60,9,20.1,13.3,65.0,101325,0,0,0,0,0,0,0,0,0,0,0,10.1,0,0,9999,77777,9,999999999,0,0,0,99,0.2,0,0
2023,1,22,5,60,9,22.2,11.0,49.0,101325,0,0,0,0,0,0,0,0,0,0,0,8.7,0,0,9999,77777,9,999999999,0,0,0,99,0.2,0,0
2023,1,22,6,60,9,24.3,9.6,39.0,101325,0,0,0,0,0,0,0,0,0,0,0,7.2,0,0,9999,77777,9,999999999,0,0,0,99,0.2,0,0
2023,1,22,7,60,9,26.0,8.7,33.0,101325,0,0,0,0,0,0,0,0,0,0,0,8.1,0,0,9999,77777,9,999999999,0,0,0,99,0.2,0,0
2023,1,22,8,60,9,26.9,9.3,33.0,101325,0,0,0,0,0,0,0,0,0,0,0,11.2,0,0,9999,77777,9,999999999,0,0,0,99,0.2,0,0
2023,1,22,9,60,9,26.9,10.6,36.0,101325,0,0,0,0,0,0,0,0,0,0,0,16.6,0,0,9999,77777,9,999999999,0,0,0,99,0.2,0,0
2023,1,22,10,60,9,26.1,11.8,41.0,101325,0,0,0,0,0,0,0,0,0,0,0,21.4,0,0,9999,77777,9,999999999,0,0,0,99,0.2,0,0
2023,1,22,11,60,9,25.1,12.4,45.0,101325,0,0,0,0,0,0,0,0,0,0,0,23.3,0,0,9999,77777,9,999999999,0,0,0,99,0.2,0,0
2023,1,22,12,60,9,24.5,12.6,47.0,101325,0,0,0,0,0,0,0,0,0,0,0,23.1,0,0,9999,77777,9,999999999,0,0,0,99,0.2,0,0
2023,1,22,13,60,9,23.2,13.4,54.0,101325,0,0,0,0,0,0,0,0,0,0,0,21.8,0,0,9999,77777,9,999999999,0,0,0,99,0.2,0,0
2023,1,22,14,60,9,22.1,14.2,61.0,101325,0,0,0,0,0,0,0,0,0,0,0,21.1,0,0,9999,77777,9,999999999,0,0,0,99,0.2,0,0
2023,1,22,15,60,9,21.6,14.5,64.0,101325,0,0,0,0,0,0,0,0,0,0,0,19.7,0,0,9999,77777,9,999999999,0,0,0,99,0.2,0,0
2023,1,22,16,60,9,21.3,13.9,63.0,101325,0,0,0,0,0,0,0,0,0,0,0,15.9,0,0,9999,77777,9,999999999,0,0,0,99,0.2,0,0
2023,1,22,17,60,9,20.7,13.6,64.0,101325,0,0,0,0,0,0,0,0,0,0,0,13.4,0,0,9999,77777,9,999999999,0,0,0,99,0.2,0,0
2023,1,22,18,60,9,20.2,12.1,60.0,101325,0,0,0,0,0,0,0,0,0,0,0,11.2,0,0,9999,77777,9,999999999,0,0,0,99,0.2,0,0
2023,1,22,19,60,9,19.7,11.1,58.0,101325,0,0,0,0,0,0,0,0,0,0,0,8.0,0,0,9999,77777,9,999999999,0,0,0,99,0.2,0,0
2023,1,22,20,60,9,19.0,10.6,58.0,101325,0,0,0,0,0,0,0,0,0,0,0,7.4,0,0,9999,77777,9,999999999,0,0,0,99,0.2,0,0
2023,1,22,21,60,9,18.7,9.9,57.0,101325,0,0,0,0,0,0,0,0,0,0,0,7.3,0,0,9999,77777,9,999999999,0,0,0,99,0.2,0,0
2023,1,22,22,60,9,18.9,9.1,53.0,101325,0,0,0,0,0,0,0,0,0,0,0,9.7,0,0,9999,77777,9,999999999,0,0,0,99,0.2,0,0
2023,1,22,23,60,9,19.1,9.3,53.0,101325,0,0,0,0,0,0,0,0,0,0,0,11.1,0,0,9999,77777,9,999999999,0,0,0,99,0.2,0,0
2023,1,22,24,60,9,18.6,9.7,56.0,101325,0,0,0,0,0,0,0,0,0,0,0,8.7,0,0,9999,77777,9,999999999,0,0,0,99,0.2,0,0
2023,1,23,1,60,9,18.1,11.1,64.0,101325,0,0,0,0,0,0,0,0,0,0,0,6.9,0,0,9999,77777,9,999999999,0,0,0,99,0.2,0,0
2023,1,23,2,60,9,16.7,11.5,71.0,101325,0,0,0,0,0,0,0,0,0,0,0,6.3,0,0,9999,77777,9,999999999,0,0,0,99,0.2,0,0
2023,1,23,3,60,9,16.8,11.3,70.0,101325,0,0,0,0,0,0,0,0,0,0,0,6.9,0,0,9999,77777,9,999999999,0,0,0,99,0.2,0,0
2023,1,23,4,60,9,18.9,10.7,59.0,101325,0,0,0,0,0,0,0,0,0,0,0,10.5,0,0,9999,77777,9,999999999,0,0,0,99,0.2,0,0
2023,1,23,5,60,9,21.0,9.8,49.0,101325,0,0,0,0,0,0,0,0,0,0,0,9.7,0,0,9999,77777,9,999999999,0,0,0,99,0.2,0,0
2023,1,23,6,60,9,23.4,9.4,41.0,101325,0,0,0,0,0,0,0,0,0,0,0,10.7,0,0,9999,77777,9,999999999,0,0,0,99,0.2,0,0
2023,1,23,7,60,9,25.2,8.5,35.0,101325,0,0,0,0,0,0,0,0,0,0,0,14.8,0,0,9999,77777,9,999999999,0,0,0,99,0.2,0,0
2023,1,23,8,60,9,25.7,9.4,36.0,101325,0,0,0,0,0,0,0,0,0,0,0,19.3,0,0,9999,77777,9,999999999,0,0,0,99,0.2,0,0
2023,1,23,9,60,9,25.5,11.4,41.0,101325,0,0,0,0,0,0,0,0,0,0,0,22.0,0,0,9999,77777,9,999999999,0,0,0,99,0.2,0,0
2023,1,23,10,60,9,25.0,12.7,46.0,101325,0,0,0,0,0,0,0,0,0,0,0,24.1,0,0,9999,77777,9,999999999,0,0,0,99,0.2,0,0
2023,1,23,11,60,9,24.6,13.3,49.0,101325,0,0,0,0,0,0,0,0,0,0,0,24.2,0,0,9999,77777,9,999999999,0,0,0,99,0.2,0,0
2023,1,23,12,60,9,23.9,13.3,51.0,101325,0,0,0,0,0,0,0,0,0,0,0,22.9,0,0,9999,77777,9,999999999,0,0,0,99,0.2,0,0
2023,1,23,13,60,9,22.5,13.5,57.0,101325,0,0,0,0,0,0,0,0,0,0,0,20.9,0,0,9999,77777,9,999999999,0,0,0,99,0.2,0,0
2023,1,23,14,60,9,21.5,13.8,61.0,101325,0,0,0,0,0,0,0,0,0,0,0,19.5,0,0,9999,77777,9,999999999,0,0,0,99,0.2,0,0
2023,1,23,15,60,9,21.1,13.7,63.0,101325,0,0,0,0,0,0,0,0,0,0,0,19.3,0,0,9999,77777,9,999999999,0,0,0,99,0.2,0,0
2023,1,23,16,60,9,20.8,14.0,65.0,101325,0,0,0,0,0,0,0,0,0,0,0,17.7,0,0,9999,77777,9,999999999,0,0,0,99,0.2,0,0
2023,1,23,17,60,9,20.4,13.8,66.0,101325,0,0,0,0,0,0,0,0,0,0,0,14.8,0,0,9999,77777,9,999999999,0,0,0,99,0.2,0,0
2023,1,23,18,60,9,20.0,13.5,66.0,101325,0,0,0,0,0,0,0,0,0,0,0,12.6,0,0,9999,77777,9,999999999,0,0,0,99,0.2,0,0
2023,1,23,19,60,9,19.3,13.2,68.0,101325,0,0,0,0,0,0,0,0,0,0,0,7.9,0,0,9999,77777,9,999999999,0,0,0,99,0.2,0,0
2023,1,23,20,60,9,18.3,12.7,70.0,101325,0,0,0,0,0,0,0,0,0,0,0,6.6,0,0,9999,77777,9,999999999,0,0,0,99,0.2,0,0
2023,1,23,21,60,9,17.9,11.7,67.0,101325,0,0,0,0,0,0,0,0,0,0,0,6.6,0,0,9999,77777,9,999999999,0,0,0,99,0.2,0,0
2023,1,23,22,60,9,17.9,11.2,65.0,101325,0,0,0,0,0,0,0,0,0,0,0,7.3,0,0,9999,77777,9,999999999,0,0,0,99,0.2,0,0
2023,1,23,23,60,9,17.8,11.7,68.0,101325,0,0,0,0,0,0,0,0,0,0,0,7.8,0,0,9999,77777,9,999999999,0,0,0,99,0.2,0,0
2023,1,23,24,60,9,17.7,12.1,70.0,101325,0,0,0,0,0,0,0,0,0,0,0,8.0,0,0,9999,77777,9,999999999,0,0,0,99,0.2,0,0
2023,1,24,1,60,9,17.5,11.9,70.0,101325,0,0,0,0,0,0,0,0,0,0,0,6.8,0,0,9999,77777,9,999999999,0,0,0,99,0.2,0,0
2023,1,24,2,60,9,16.7,11.2,70.0,101325,0,0,0,0,0,0,0,0,0,0,0,6.5,0,0,9999,77777,9,999999999,0,0,0,99,0.2,0,0
2023,1,24,3,60,9,16.7,10.4,66.0,101325,0,0,0,0,0,0,0,0,0,0,0,6.6,0,0,9999,77777,9,999999999,0,0,0,99,0.2,0,0
2023,1,24,4,60,9,19.2,9.8,54.0,101325,0,0,0,0,0,0,0,0,0,0,0,11.2,0,0,9999,77777,9,999999999,0,0,0,99,0.2,0,0
2023,1,24,5,60,9,21.6,10.1,48.0,101325,0,0,0,0,0,0,0,0,0,0,0,12.0,0,0,9999,77777,9,999999999,0,0,0,99,0.2,0,0
2023,1,24,6,60,9,23.5,11.1,46.0,101325,0,0,0,0,0,0,0,0,0,0,0,11.9,0,0,9999,77777,9,999999999,0,0,0,99,0.2,0,0
2023,1,24,7,60,9,24.9,10.5,40.0,101325,0,0,0,0,0,0,0,0,0,0,0,14.8,0,0,9999,77777,9,999999999,0,0,0,99,0.2,0,0
2023,1,24,8,60,9,25.5,10.3,38.0,101325,0,0,0,0,0,0,0,0,0,0,0,17.3,0,0,9999,77777,9,999999999,0,0,0,99,0.2,0,0
2023,1,24,9,60,9,25.3,12.2,44.0,101325,0,0,0,0,0,0,0,0,0,0,0,20.6,0,0,9999,77777,9,999999999,0,0,0,99,0.2,0,0
2023,1,24,10,60,9,24.5,13.5,50.0,101325,0,0,0,0,0,0,0,0,0,0,0,24.2,0,0,9999,77777,9,999999999,0,0,0,99,0.2,0,0
2023,1,24,11,60,9,24.3,12.8,49.0,101325,0,0,0,0,0,0,0,0,0,0,0,23.8,0,0,9999,77777,9,999999999,0,0,0,99,0.2,0,0
2023,1,24,12,60,9,23.8,12.6,50.0,101325,0,0,0,0,0,0,0,0,0,0,0,22.2,0,0,9999,77777,9,999999999,0,0,0,99,0.2,0,0
2023,1,24,13,60,9,22.2,12.9,55.0,101325,0,0,0,0,0,0,0,0,0,0,0,19.0,0,0,9999,77777,9,999999999,0,0,0,99,0.2,0,0
2023,1,24,14,60,9,21.3,13.0,59.0,101325,0,0,0,0,0,0,0,0,0,0,0,17.0,0,0,9999,77777,9,999999999,0,0,0,99,0.2,0,0
2023,1,24,15,60,9,20.9,13.2,61.0,101325,0,0,0,0,0,0,0,0,0,0,0,16.3,0,0,9999,77777,9,999999999,0,0,0,99,0.2,0,0
2023,1,24,16,60,9,20.6,13.6,64.0,101325,0,0,0,0,0,0,0,0,0,0,0,15.9,0,0,9999,77777,9,999999999,0,0,0,99,0.2,0,0
2023,1,24,17,60,9,20.3,13.3,64.0,101325,0,0,0,0,0,0,0,0,0,0,0,14.1,0,0,9999,77777,9,999999999,0,0,0,99,0.2,0,0
2023,1,24,18,60,9,20.0,13.0,64.0,101325,0,0,0,0,0,0,0,0,0,0,0,11.2,0,0,9999,77777,9,999999999,0,0,0,99,0.2,0,0
2023,1,24,19,60,9,19.5,13.2,67.0,101325,0,0,0,0,0,0,0,0,0,0,0,10.3,0,0,9999,77777,9,999999999,0,0,0,99,0.2,0,0
2023,1,24,20,60,9,19.0,13.4,70.0,101325,0,0,0,0,0,0,0,0,0,0,0,8.6,0,0,9999,77777,9,999999999,0,0,0,99,0.2,0,0
2023,1,24,21,60,9,18.1,13.3,73.0,101325,0,0,0,0,0,0,0,0,0,0,0,7.3,0,0,9999,77777,9,999999999,0,0,0,99,0.2,0,0
2023,1,24,22,60,9,17.3,12.3,72.0,101325,0,0,0,0,0,0,0,0,0,0,0,6.6,0,0,9999,77777,9,999999999,0,0,0,99,0.2,0,0
2023,1,24,23,60,9,17.3,11.0,66.0,101325,0,0,0,0,0,0,0,0,0,0,0,7.9,0,0,9999,77777,9,999999999,0,0,0,99,0.2,0,0
2023,1,24,24,60,9,17.8,9.3,57.0,101325,0,0,0,0,0,0,0,0,0,0,0,10.8,0,0,9999,77777,9,999999999,0,0,0,99,0.2,0,0
2023,1,25,1,60,9,17.6,9.2,58.0,101325,0,0,0,0,0,0,0,0,0,0,0,9.7,0,0,9999,77777,9,999999999,0,0,0,99,0.2,0,0
2023,1,25,2,60,9,18.0,8.0,52.0,101325,0,0,0,0,0,0,0,0,0,0,0,13.0,0,0,9999,77777,9,999999999,0,0,0,99,0.2,0,0
2023,1,25,3,60,9,18.3,8.4,52.0,101325,0,0,0,0,0,0,0,0,0,0,0,14.1,0,0,9999,77777,9,999999999,0,0,0,99,0.2,0,0
2023,1,25,4,60,9,19.5,8.7,50.0,101325,0,0,0,0,0,0,0,0,0,0,0,14.1,0,0,9999,77777,9,999999999,0,0,0,99,0.2,0,0
2023,1,25,5,60,9,21.3,8.1,43.0,101325,0,0,0,0,0,0,0,0,0,0,0,13.3,0,0,9999,77777,9,999999999,0,0,0,99,0.2,0,0
2023,1,25,6,60,9,23.5,8.2,38.0,101325,0,0,0,0,0,0,0,0,0,0,0,14.1,0,0,9999,77777,9,999999999,0,0,0,99,0.2,0,0
2023,1,25,7,60,9,25.3,8.4,34.0,101325,0,0,0,0,0,0,0,0,0,0,0,14.7,0,0,9999,77777,9,999999999,0,0,0,99,0.2,0,0
2023,1,25,8,60,9,26.5,9.1,33.0,101325,0,0,0,0,0,0,0,0,0,0,0,17.7,0,0,9999,77777,9,999999999,0,0,0,99,0.2,0,0
2023,1,25,9,60,9,26.3,10.8,38.0,101325,0,0,0,0,0,0,0,0,0,0,0,22.8,0,0,9999,77777,9,999999999,0,0,0,99,0.2,0,0
2023,1,25,10,60,9,25.7,13.1,46.0,101325,0,0,0,0,0,0,0,0,0,0,0,25.0,0,0,9999,77777,9,999999999,0,0,0,99,0.2,0,0
2023,1,25,11,60,9,24.8,14.7,53.0,101325,0,0,0,0,0,0,0,0,0,0,0,26.0,0,0,9999,77777,9,999999999,0,0,0,99,0.2,0,0
2023,1,25,12,60,9,23.9,14.1,54.0,101325,0,0,0,0,0,0,0,0,0,0,0,26.7,0,0,9999,77777,9,999999999,0,0,0,99,0.2,0,0
2023,1,25,13,60,9,22.6,13.9,58.0,101325,0,0,0,0,0,0,0,0,0,0,0,21.8,0,0,9999,77777,9,999999999,0,0,0,99,0.2,0,0
2023,1,25,14,60,9,21.7,14.6,64.0,101325,0,0,0,0,0,0,0,0,0,0,0,20.9,0,0,9999,77777,9,999999999,0,0,0,99,0.2,0,0
2023,1,25,15,60,9,21.2,14.4,65.0,101325,0,0,0,0,0,0,0,0,0,0,0,21.0,0,0,9999,77777,9,999999999,0,0,0,99,0.2,0,0
2023,1,25,16,60,9,20.9,13.9,64.0,101325,0,0,0,0,0,0,0,0,0,0,0,19.4,0,0,9999,77777,9,999999999,0,0,0,99,0.2,0,0
2023,1,25,17,60,9,20.5,13.4,64.0,101325,0,0,0,0,0,0,0,0,0,0,0,18.5,0,0,9999,77777,9,999999999,0,0,0,99,0.2,0,0
2023,1,25,18,60,9,20.1,12.9,63.0,101325,0,0,0,0,0,0,0,0,0,0,0,17.5,0,0,9999,77777,9,999999999,0,0,0,99,0.2,0,0
2023,1,25,19,60,9,19.8,11.8,60.0,101325,0,0,0,0,0,0,0,0,0,0,0,14.8,0,0,9999,77777,9,999999999,0,0,0,99,0.2,0,0
2023,1,25,20,60,9,19.6,11.0,58.0,101325,0,0,0,0,0,0,0,0,0,0,0,14.1,0,0,9999,77777,9,999999999,0,0,0,99,0.2,0,0
2023,1,25,21,60,9,19.5,10.4,56.0,101325,0,0,0,0,0,0,0,0,0,0,0,13.3,0,0,9999,77777,9,999999999,0,0,0,99,0.2,0,0
2023,1,25,22,60,9,19.5,10.2,55.0,101325,0,0,0,0,0,0,0,0,0,0,0,14.1,0,0,9999,77777,9,999999999,0,0,0,99,0.2,0,0
2023,1,25,23,60,9,19.4,10.1,55.0,101325,0,0,0,0,0,0,0,0,0,0,0,15.2,0,0,9999,77777,9,999999999,0,0,0,99,0.2,0,0
2023,1,25,24,60,9,19.3,10.2,56.0,101325,0,0,0,0,0,0,0,0,0,0,0,15.1,0,0,9999,77777,9,999999999,0,0,0,99,0.2,0,0
2023,1,26,1,60,9,18.9,11.0,60.0,101325,0,0,0,0,0,0,0,0,0,0,0,11.9,0,0,9999,77777,9,999999999,0,0,0,99,0.2,0,0
2023,1,26,2,60,9,18.4,11.1,63.0,101325,0,0,0,0,0,0,0,0,0,0,0,10.4,0,0,9999,77777,9,999999999,0,0,0,99,0.2,0,0
2023,1,26,3,60,9,18.1,11.4,65.0,101325,0,0,0,0,0,0,0,0,0,0,0,10.9,0,0,9999,77777,9,999999999,0,0,0,99,0.2,0,0
2023,1,26,4,60,9,19.3,11.7,61.0,101325,0,0,0,0,0,0,0,0,0,0,0,12.4,0,0,9999,77777,9,999999999,0,0,0,99,0.2,0,0
2023,1,26,5,60,9,21.6,11.7,53.0,101325,0,0,0,0,0,0,0,0,0,0,0,11.3,0,0,9999,77777,9,999999999,0,0,0,99,0.2,0,0
2023,1,26,6,60,9,24.2,12.3,48.0,101325,0,0,0,0,0,0,0,0,0,0,0,11.0,0,0,9999,77777,9,999999999,0,0,0,99,0.2,0,0
2023,1,26,7,60,9,26.2,13.0,44.0,101325,0,0,0,0,0,0,0,0,0,0,0,10.5,0,0,9999,77777,9,999999999,0,0,0,99,0.2,0,0
2023,1,26,8,60,9,27.3,13.6,43.0,101325,0,0,0,0,0,0,0,0,0,0,0,13.8,0,0,9999,77777,9,999999999,0,0,0,99,0.2,0,0
2023,1,26,9,60,9,27.1,14.5,46.0,101325,0,0,0,0,0,0,0,0,0,0,0,19.6,0,0,9999,77777,9,999999999,0,0,0,99,0.2,0,0
2023,1,26,10,60,9,26.2,15.5,52.0,101325,0,0,0,0,0,0,0,0,0,0,0,21.7,0,0,9999,77777,9,999999999,0,0,0,99,0.2,0,0
2023,1,26,11,60,9,25.8,15.8,54.0,101325,0,0,0,0,0,0,0,0,0,0,0,21.5,0,0,9999,77777,9,999999999,0,0,0,99,0.2,0,0
2023,1,26,12,60,9,25.2,16.6,59.0,101325,0,0,0,0,0,0,0,0,0,0,0,21.2,0,0,9999,77777,9,999999999,0,0,0,99,0.2,0,0
2023,1,26,13,60,9,24.3,17.6,66.0,101325,0,0,0,0,0,0,0,0,0,0,0,18.0,0,0,9999,77777,9,999999999,0,0,0,99,0.2,0,0
2023,1,26,14,60,9,23.4,17.6,70.0,101325,0,0,0,0,0,0,0,0,0,0,0,17.9,0,0,9999,77777,9,999999999,0,0,0,99,0.2,0,0
2023,1,26,15,60,9,22.9,17.4,71.0,101325,0,0,0,0,0,0,0,0,0,0,0,17.8,0,0,9999,77777,9,999999999,0,0,0,99,0.2,0,0
2023,1,26,16,60,9,22.6,16.7,69.0,101325,0,0,0,0,0,0,0,0,0,0,0,17.6,0,0,9999,77777,9,999999999,0,0,0,99,0.2,0,0
2023,1,26,17,60,9,22.5,15.8,66.0,101325,0,0,0,0,0,0,0,0,0,0,0,15.3,0,0,9999,77777,9,999999999,0,0,0,99,0.2,0,0
2023,1,26,18,60,9,22.2,15.3,65.0,101325,0,0,0,0,0,0,0,0,0,0,0,11.9,0,0,9999,77777,9,999999999,0,0,0,99,0.2,0,0
2023,1,26,19,60,9,22.0,15.2,66.0,101325,0,0,0,0,0,0,0,0,0,0,0,10.7,0,0,9999,77777,9,999999999,0,0,0,99,0.2,0,0
2023,1,26,20,60,9,22.0,15.7,67.0,101325,0,0,0,0,0,0,0,0,0,0,0,11.3,0,0,9999,77777,9,999999999,0,0,0,99,0.2,0,0
2023,1,26,21,60,9,21.8,15.9,69.0,101325,0,0,0,0,0,0,0,0,0,0,0,10.9,0,0,9999,77777,9,999999999,0,0,0,99,0.2,0,0
2023,1,26,22,60,9,21.4,16.1,72.0,101325,0,0,0,0,0,0,0,0,0,0,0,9.8,0,0,9999,77777,9,999999999,0,0,0,99,0.2,0,0
2023,1,26,23,60,9,21.1,16.3,74.0,101325,0,0,0,0,0,0,0,0,0,0,0,8.7,0,0,9999,77777,9,999999999,0,0,0,99,0.2,0,0
2023,1,26,24,60,9,20.7,16.5,77.0,101325,0,0,0,0,0,0,0,0,0,0,0,7.8,0,0,9999,77777,9,999999999,0,0,0,99,0.2,0,0
2023,1,27,1,60,9,20.4,16.8,80.0,101325,0,0,0,0,0,0,0,0,0,0,0,7.7,0,0,9999,77777,9,999999999,0,0,0,99,0.2,0,0
2023,1,27,2,60,9,20.4,16.7,79.0,101325,0,0,0,0,0,0,0,0,0,0,0,9.1,0,0,9999,77777,9,999999999,0,0,0,99,0.2,0,0
2023,1,27,3,60,9,20.4,16.5,78.0,101325,0,0,0,0,0,0,0,0,0,0,0,9.6,0,0,9999,77777,9,999999999,0,0,0,99,0.2,0,0
2023,1,27,4,60,9,22.3,16.7,71.0,101325,0,0,0,0,0,0,0,0,0,0,0,11.8,0,0,9999,77777,9,999999999,0,0,0,99,0.2,0,0
2023,1,27,5,60,9,25.6,17.2,60.0,101325,0,0,0,0,0,0,0,0,0,0,0,10.3,0,0,9999,77777,9,999999999,0,0,0,99,0.2,0,0
2023,1,27,6,60,9,28.9,17.1,49.0,101325,0,0,0,0,0,0,0,0,0,0,0,9.3,0,0,9999,77777,9,999999999,0,0,0,99,0.2,0,0
2023,1,27,7,60,9,31.3,16.5,41.0,101325,0,0,0,0,0,0,0,0,0,0,0,8.0,0,0,9999,77777,9,999999999,0,0,0,99,0.2,0,0
2023,1,27,8,60,9,32.6,15.2,35.0,101325,0,0,0,0,0,0,0,0,0,0,0,5.2,0,0,9999,77777,9,999999999,0,0,0,99,0.2,0,0
2023,1,27,9,60,9,32.3,16.1,38.0,101325,0,0,0,0,0,0,0,0,0,0,0,9.0,0,0,9999,77777,9,999999999,0,0,0,99,0.2,0,0
2023,1,27,10,60,9,30.8,19.2,50.0,101325,0,0,0,0,0,0,0,0,0,0,0,14.3,0,0,9999,77777,9,999999999,0,0,0,99,0.2,0,0
2023,1,27,11,60,9,29.5,19.4,54.0,101325,0,0,0,0,0,0,0,0,0,0,0,16.9,0,0,9999,77777,9,999999999,0,0,0,99,0.2,0,0
2023,1,27,12,60,9,28.2,19.4,59.0,101325,0,0,0,0,0,0,0,0,0,0,0,16.4,0,0,9999,77777,9,999999999,0,0,0,99,0.2,0,0
2023,1,27,13,60,9,27.0,19.6,64.0,101325,0,0,0,0,0,0,0,0,0,0,0,14.2,0,0,9999,77777,9,999999999,0,0,0,99,0.2,0,0
2023,1,27,14,60,9,25.5,19.5,69.0,101325,0,0,0,0,0,0,0,0,0,0,0,15.6,0,0,9999,77777,9,999999999,0,0,0,99,0.2,0,0
2023,1,27,15,60,9,24.5,19.2,73.0,101325,0,0,0,0,0,0,0,0,0,0,0,16.4,0,0,9999,77777,9,999999999,0,0,0,99,0.2,0,0
2023,1,27,16,60,9,23.9,19.6,77.0,101325,0,0,0,0,0,0,0,0,0,0,0,13.5,0,0,9999,77777,9,999999999,0,0,0,99,0.2,0,0
2023,1,27,17,60,9,23.7,19.6,78.0,101325,0,0,0,0,0,0,0,0,0,0,0,9.1,0,0,9999,77777,9,999999999,0,0,0,99,0.2,0,0
2023,1,27,18,60,9,22.9,19.7,82.0,101325,0,0,0,0,0,0,0,0,0,0,0,5.5,0,0,9999,77777,9,999999999,0,0,0,99,0.2,0,0
2023,1,27,19,60,9,22.4,19.4,83.0,101325,0,0,0,0,0,0,0,0,0,0,0,5.0,0,0,9999,77777,9,999999999,0,0,0,99,0.2,0,0
2023,1,27,20,60,9,21.6,19.4,88.0,101325,0,0,0,0,0,0,0,0,0,0,0,6.3,0,0,9999,77777,9,999999999,0,0,0,99,0.2,0,0
2023,1,27,21,60,9,21.3,19.1,87.0,101325,0,0,0,0,0,0,0,0,0,0,0,6.6,0,0,9999,77777,9,999999999,0,0,0,99,0.2,0,0
2023,1,27,22,60,9,21.3,18.8,86.0,101325,0,0,0,0,0,0,0,0,0,0,0,4.9,0,0,9999,77777,9,999999999,0,0,0,99,0.2,0,0
2023,1,27,23,60,9,20.5,18.9,91.0,101325,0,0,0,0,0,0,0,0,0,0,0,7.0,0,0,9999,77777,9,999999999,0,0,0,99,0.2,0,0
2023,1,27,24,60,9,20.4,19.0,92.0,101325,0,0,0,0,0,0,0,0,0,0,0,6.0,0,0,9999,77777,9,999999999,0,0,0,99,0.2,0,0
2023,1,28,1,60,9,20.4,19.2,93.0,101325,0,0,0,0,0,0,0,0,0,0,0,6.7,0,0,9999,77777,9,999999999,0,0,0,99,0.2,0,0
2023,1,28,2,60,9,19.9,18.7,93.0,101325,0,0,0,0,0,0,0,0,0,0,0,6.9,0,0,9999,77777,9,999999999,0,0,0,99,0.2,0,0
2023,1,28,3,60,9,19.7,18.5,93.0,101325,0,0,0,0,0,0,0,0,0,0,0,5.9,0,0,9999,77777,9,999999999,0,0,0,99,0.2,0,0
2023,1,28,4,60,9,21.6,18.2,81.0,101325,0,0,0,0,0,0,0,0,0,0,0,9.3,0,0,9999,77777,9,999999999,0,0,0,99,0.2,0,0
2023,1,28,5,60,9,24.5,16.7,62.0,101325,0,0,0,0,0,0,0,0,0,0,0,8.1,0,0,9999,77777,9,999999999,0,0,0,99,0.2,0,0
2023,1,28,6,60,9,28.1,14.0,42.0,101325,0,0,0,0,0,0,0,0,0,0,0,9.2,0,0,9999,77777,9,999999999,0,0,0,99,0.2,0,0
2023,1,28,7,60,9,30.5,12.4,33.0,101325,0,0,0,0,0,0,0,0,0,0,0,10.0,0,0,9999,77777,9,999999999,0,0,0,99,0.2,0,0
2023,1,28,8,60,9,30.8,13.5,35.0,101325,0,0,0,0,0,0,0,0,0,0,0,10.2,0,0,9999,77777,9,999999999,0,0,0,99,0.2,0,0
2023,1,28,9,60,9,30.2,14.9,39.0,101325,0,0,0,0,0,0,0,0,0,0,0,13.2,0,0,9999,77777,9,999999999,0,0,0,99,0.2,0,0
2023,1,28,10,60,9,29.7,16.7,46.0,101325,0,0,0,0,0,0,0,0,0,0,0,15.2,0,0,9999,77777,9,999999999,0,0,0,99,0.2,0,0
2023,1,28,11,60,9,28.9,18.2,52.0,101325,0,0,0,0,0,0,0,0,0,0,0,18.0,0,0,9999,77777,9,999999999,0,0,0,99,0.2,0,0
2023,1,28,12,60,9,27.6,19.5,61.0,101325,0,0,0,0,0,0,0,0,0,0,0,18.5,0,0,9999,77777,9,999999999,0,0,0,99,0.2,0,0
2023,1,28,13,60,9,26.1,20.6,72.0,101325,0,0,0,0,0,0,0,0,0,0,0,14.0,0,0,9999,77777,9,999999999,0,0,0,99,0.2,0,0
2023,1,28,14,60,9,24.7,21.5,82.0,101325,0,0,0,0,0,0,0,0,0,0,0,14.8,0,0,9999,77777,9,999999999,0,0,0,99,0.2,0,0
2023,1,28,15,60,9,24.0,22.3,90.0,101325,0,0,0,0,0,0,0,0,0,0,0,12.2,0,0,9999,77777,9,999999999,0,0,0,99,0.2,0,0
2023,1,28,16,60,9,23.6,22.8,96.0,101325,0,0,0,0,0,0,0,0,0,0,0,7.9,0,0,9999,77777,9,999999999,0,0,0,99,0.2,0,0
2023,1,28,17,60,9,22.6,22.3,98.0,101325,0,0,0,0,0,0,0,0,0,0,0,6.9,0,0,9999,77777,9,999999999,0,0,0,99,0.2,0,0
2023,1,28,18,60,9,22.5,22.4,99.0,101325,0,0,0,0,0,0,0,0,0,0,0,4.0,0,0,9999,77777,9,999999999,0,0,0,99,0.2,0,0
2023,1,28,19,60,9,21.8,21.8,100.0,101325,0,0,0,0,0,0,0,0,0,0,0,3.8,0,0,9999,77777,9,999999999,0,0,0,99,0.2,0,0
2023,1,28,20,60,9,21.9,21.9,100.0,101325,0,0,0,0,0,0,0,0,0,0,0,4.4,0,0,9999,77777,9,999999999,0,0,0,99,0.2,0,0
2023,1,28,21,60,9,22.3,22.2,99.0,101325,0,0,0,0,0,0,0,0,0,0,0,3.3,0,0,9999,77777,9,999999999,0,0,0,99,0.2,0,0
2023,1,28,22,60,9,22.0,21.9,100.0,101325,0,0,0,0,0,0,0,0,0,0,0,3.2,0,0,9999,77777,9,999999999,0,0,0,99,0.2,0,0
2023,1,28,23,60,9,22.2,22.1,99.0,101325,0,0,0,0,0,0,0,0,0,0,0,1.1,0,0,9999,77777,9,999999999,0,0,0,99,0.2,0,0
2023,1,28,24,60,9,22.1,21.9,99.0,101325,0,0,0,0,0,0,0,0,0,0,0,1.9,0,0,9999,77777,9,999999999,0,0,0,99,0.2,0,0
2023,1,29,1,60,9,22.4,22.2,99.0,101325,0,0,0,0,0,0,0,0,0,0,0,3.8,0,0,9999,77777,9,999999999,0,0,0,99,0.2,0,0
2023,1,29,2,60,9,22.2,22.0,99.0,101325,0,0,0,0,0,0,0,0,0,0,0,3.4,0,0,9999,77777,9,999999999,0,0,0,99,0.2,0,0
2023,1,29,3,60,9,22.6,22.0,97.0,101325,0,0,0,0,0,0,0,0,0,0,0,3.4,0,0,9999,77777,9,999999999,0,0,0,99,0.2,0,0
2023,1,29,4,60,9,23.0,21.6,92.0,101325,0,0,0,0,0,0,0,0,0,0,0,5.0,0,0,9999,77777,9,999999999,0,0,0,99,0.2,0,0
2023,1,29,5,60,9,23.3,21.3,88.0,101325,0,0,0,0,0,0,0,0,0,0,0,6.6,0,0,9999,77777,9,999999999,0,0,0,99,0.2,0,0
2023,1,29,6,60,9,24.7,21.6,83.0,101325,0,0,0,0,0,0,0,0,0,0,0,3.6,0,0,9999,77777,9,999999999,0,0,0,99,0.2,0,0
2023,1,29,7,60,9,25.9,21.1,75.0,101325,0,0,0,0,0,0,0,0,0,0,0,7.9,0,0,9999,77777,9,999999999,0,0,0,99,0.2,0,0
2023,1,29,8,60,9,25.3,20.9,77.0,101325,0,0,0,0,0,0,0,0,0,0,0,14.4,0,0,9999,77777,9,999999999,0,0,0,99,0.2,0,0
2023,1,29,9,60,9,25.6,20.8,75.0,101325,0,0,0,0,0,0,0,0,0,0,0,13.0,0,0,9999,77777,9,999999999,0,0,0,99,0.2,0,0
2023,1,29,10,60,9,25.5,20.6,74.0,101325,0,0,0,0,0,0,0,0,0,0,0,14.2,0,0,9999,77777,9,999999999,0,0,0,99,0.2,0,0
2023,1,29,11,60,9,25.3,20.3,74.0,101325,0,0,0,0,0,0,0,0,0,0,0,17.2,0,0,9999,77777,9,999999999,0,0,0,99,0.2,0,0
2023,1,29,12,60,9,25.0,20.3,75.0,101325,0,0,0,0,0,0,0,0,0,0,0,15.0,0,0,9999,77777,9,999999999,0,0,0,99,0.2,0,0
2023,1,29,13,60,9,24.1,20.4,80.0,101325,0,0,0,0,0,0,0,0,0,0,0,14.0,0,0,9999,77777,9,999999999,0,0,0,99,0.2,0,0
2023,1,29,14,60,9,23.2,20.6,85.0,101325,0,0,0,0,0,0,0,0,0,0,0,12.9,0,0,9999,77777,9,999999999,0,0,0,99,0.2,0,0
2023,1,29,15,60,9,22.8,20.9,89.0,101325,0,0,0,0,0,0,0,0,0,0,0,11.7,0,0,9999,77777,9,999999999,0,0,0,99,0.2,0,0
2023,1,29,16,60,9,22.5,20.9,91.0,101325,0,0,0,0,0,0,0,0,0,0,0,8.2,0,0,9999,77777,9,999999999,0,0,0,99,0.2,0,0
2023,1,29,17,60,9,21.8,21.1,96.0,101325,0,0,0,0,0,0,0,0,0,0,0,4.7,0,0,9999,77777,9,999999999,0,0,0,99,0.2,0,0
2023,1,29,18,60,9,21.6,20.9,96.0,101325,0,0,0,0,0,0,0,0,0,0,0,4.7,0,0,9999,77777,9,999999999,0,0,0,99,0.2,0,0
2023,1,29,19,60,9,21.6,20.9,96.0,101325,0,0,0,0,0,0,0,0,0,0,0,7.7,0,0,9999,77777,9,999999999,0,0,0,99,0.2,0,0
2023,1,29,20,60,9,21.5,20.9,96.0,101325,0,0,0,0,0,0,0,0,0,0,0,8.5,0,0,9999,77777,9,999999999,0,0,0,99,0.2,0,0
2023,1,29,21,60,9,21.3,20.6,96.0,101325,0,0,0,0,0,0,0,0,0,0,0,7.2,0,0,9999,77777,9,999999999,0,0,0,99,0.2,0,0
2023,1,29,22,60,9,21.2,20.5,96.0,101325,0,0,0,0,0,0,0,0,0,0,0,6.9,0,0,9999,77777,9,999999999,0,0,0,99,0.2,0,0
2023,1,29,23,60,9,20.9,20.4,97.0,101325,0,0,0,0,0,0,0,0,0,0,0,6.5,0,0,9999,77777,9,999999999,0,0,0,99,0.2,0,0
2023,1,29,24,60,9,20.6,20.1,97.0,101325,0,0,0,0,0,0,0,0,0,0,0,5.5,0,0,9999,77777,9,999999999,0,0,0,99,0.2,0,0
2023,1,30,1,60,9,20.9,20.5,98.0,101325,0,0,0,0,0,0,0,0,0,0,0,5.9,0,0,9999,77777,9,999999999,0,0,0,99,0.2,0,0
2023,1,30,2,60,9,20.0,19.9,99.0,101325,0,0,0,0,0,0,0,0,0,0,0,4.1,0,0,9999,77777,9,999999999,0,0,0,99,0.2,0,0
2023,1,30,3,60,9,20.0,19.7,98.0,101325,0,0,0,0,0,0,0,0,0,0,0,4.4,0,0,9999,77777,9,999999999,0,0,0,99,0.2,0,0
2023,1,30,4,60,9,22.2,19.4,84.0,101325,0,0,0,0,0,0,0,0,0,0,0,9.0,0,0,9999,77777,9,999999999,0,0,0,99,0.2,0,0
2023,1,30,5,60,9,24.1,18.1,69.0,101325,0,0,0,0,0,0,0,0,0,0,0,12.0,0,0,9999,77777,9,999999999,0,0,0,99,0.2,0,0
2023,1,30,6,60,9,25.6,17.6,61.0,101325,0,0,0,0,0,0,0,0,0,0,0,12.5,0,0,9999,77777,9,999999999,0,0,0,99,0.2,0,0
2023,1,30,7,60,9,27.2,17.2,55.0,101325,0,0,0,0,0,0,0,0,0,0,0,11.6,0,0,9999,77777,9,999999999,0,0,0,99,0.2,0,0
2023,1,30,8,60,9,28.0,17.5,53.0,101325,0,0,0,0,0,0,0,0,0,0,0,14.7,0,0,9999,77777,9,999999999,0,0,0,99,0.2,0,0
2023,1,30,9,60,9,27.7,18.3,57.0,101325,0,0,0,0,0,0,0,0,0,0,0,19.3,0,0,9999,77777,9,999999999,0,0,0,99,0.2,0,0
2023,1,30,10,60,9,27.8,18.7,58.0,101325,0,0,0,0,0,0,0,0,0,0,0,19.1,0,0,9999,77777,9,999999999,0,0,0,99,0.2,0,0
2023,1,30,11,60,9,25.8,19.1,67.0,101325,0,0,0,0,0,0,0,0,0,0,0,23.2,0,0,9999,77777,9,999999999,0,0,0,99,0.2,0,0
2023,1,30,12,60,9,25.8,18.3,63.0,101325,0,0,0,0,0,0,0,0,0,0,0,21.3,0,0,9999,77777,9,999999999,0,0,0,99,0.2,0,0
2023,1,30,13,60,9,24.5,19.1,72.0,101325,0,0,0,0,0,0,0,0,0,0,0,18.7,0,0,9999,77777,9,999999999,0,0,0,99,0.2,0,0
2023,1,30,14,60,9,23.3,20.4,84.0,101325,0,0,0,0,0,0,0,0,0,0,0,17.8,0,0,9999,77777,9,999999999,0,0,0,99,0.2,0,0
2023,1,30,15,60,9,22.9,20.1,84.0,101325,0,0,0,0,0,0,0,0,0,0,0,19.6,0,0,9999,77777,9,999999999,0,0,0,99,0.2,0,0
2023,1,30,16,60,9,22.9,19.6,82.0,101325,0,0,0,0,0,0,0,0,0,0,0,19.9,0,0,9999,77777,9,999999999,0,0,0,99,0.2,0,0
2023,1,30,17,60,9,22.7,19.3,81.0,101325,0,0,0,0,0,0,0,0,0,0,0,18.6,0,0,9999,77777,9,999999999,0,0,0,99,0.2,0,0
2023,1,30,18,60,9,22.6,18.5,78.0,101325,0,0,0,0,0,0,0,0,0,0,0,16.2,0,0,9999,77777,9,999999999,0,0,0,99,0.2,0,0
2023,1,30,19,60,9,22.4,18.0,76.0,101325,0,0,0,0,0,0,0,0,0,0,0,13.3,0,0,9999,77777,9,999999999,0,0,0,99,0.2,0,0
2023,1,30,20,60,9,22.3,17.7,75.0,101325,0,0,0,0,0,0,0,0,0,0,0,13.0,0,0,9999,77777,9,999999999,0,0,0,99,0.2,0,0
2023,1,30,21,60,9,22.2,17.5,75.0,101325,0,0,0,0,0,0,0,0,0,0,0,13.7,0,0,9999,77777,9,999999999,0,0,0,99,0.2,0,0
2023,1,30,22,60,9,22.0,17.5,76.0,101325,0,0,0,0,0,0,0,0,0,0,0,11.2,0,0,9999,77777,9,999999999,0,0,0,99,0.2,0,0
2023,1,30,23,60,9,21.9,17.5,76.0,101325,0,0,0,0,0,0,0,0,0,0,0,14.6,0,0,9999,77777,9,999999999,0,0,0,99,0.2,0,0
2023,1,30,24,60,9,21.7,17.5,77.0,101325,0,0,0,0,0,0,0,0,0,0,0,14.5,0,0,9999,77777,9,999999999,0,0,0,99,0.2,0,0
2023,1,31,1,60,9,21.6,17.2,76.0,101325,0,0,0,0,0,0,0,0,0,0,0,17.7,0,0,9999,77777,9,999999999,0,0,0,99,0.2,0,0
2023,1,31,2,60,9,21.3,17.2,77.0,101325,0,0,0,0,0,0,0,0,0,0,0,15.9,0,0,9999,77777,9,999999999,0,0,0,99,0.2,0,0
2023,1,31,3,60,9,21.2,17.3,78.0,101325,0,0,0,0,0,0,0,0,0,0,0,13.4,0,0,9999,77777,9,999999999,0,0,0,99,0.2,0,0
2023,1,31,4,60,9,22.6,17.4,72.0,101325,0,0,0,0,0,0,0,0,0,0,0,8.8,0,0,9999,77777,9,999999999,0,0,0,99,0.2,0,0
2023,1,31,5,60,9,24.9,17.5,64.0,101325,0,0,0,0,0,0,0,0,0,0,0,6.0,0,0,9999,77777,9,999999999,0,0,0,99,0.2,0,0
2023,1,31,6,60,9,27.3,17.5,55.0,101325,0,0,0,0,0,0,0,0,0,0,0,7.5,0,0,9999,77777,9,999999999,0,0,0,99,0.2,0,0
2023,1,31,7,60,9,29.3,17.3,48.0,101325,0,0,0,0,0,0,0,0,0,0,0,5.9,0,0,9999,77777,9,999999999,0,0,0,99,0.2,0,0
2023,1,31,8,60,9,30.4,16.7,44.0,101325,0,0,0,0,0,0,0,0,0,0,0,5.6,0,0,9999,77777,9,999999999,0,0,0,99,0.2,0,0
2023,1,31,9,60,9,29.9,19.0,52.0,101325,0,0,0,0,0,0,0,0,0,0,0,14.4,0,0,9999,77777,9,999999999,0,0,0,99,0.2,0,0
2023,1,31,10,60,9,28.8,20.6,61.0,101325,0,0,0,0,0,0,0,0,0,0,0,19.4,0,0,9999,77777,9,999999999,0,0,0,99,0.2,0,0
2023,1,31,11,60,9,28.1,19.6,60.0,101325,0,0,0,0,0,0,0,0,0,0,0,22.2,0,0,9999,77777,9,999999999,0,0,0,99,0.2,0,0
2023,1,31,12,60,9,27.6,19.2,60.0,101325,0,0,0,0,0,0,0,0,0,0,0,20.9,0,0,9999,77777,9,999999999,0,0,0,99,0.2,0,0
2023,1,31,13,60,9,26.4,20.7,71.0,101325,0,0,0,0,0,0,0,0,0,0,0,18.2,0,0,9999,77777,9,999999999,0,0,0,99,0.2,0,0
2023,1,31,14,60,9,25.5,19.6,70.0,101325,0,0,0,0,0,0,0,0,0,0,0,21.6,0,0,9999,77777,9,999999999,0,0,0,99,0.2,0,0
2023,1,31,15,60,9,25.4,18.0,64.0,101325,0,0,0,0,0,0,0,0,0,0,0,21.5,0,0,9999,77777,9,999999999,0,0,0,99,0.2,0,0
2023,1,31,16,60,9,25.9,16.3,56.0,101325,0,0,0,0,0,0,0,0,0,0,0,21.3,0,0,9999,77777,9,999999999,0,0,0,99,0.2,0,0
2023,1,31,17,60,9,25.9,15.8,54.0,101325,0,0,0,0,0,0,0,0,0,0,0,19.1,0,0,9999,77777,9,999999999,0,0,0,99,0.2,0,0
2023,1,31,18,60,9,25.6,15.7,54.0,101325,0,0,0,0,0,0,0,0,0,0,0,18.8,0,0,9999,77777,9,999999999,0,0,0,99,0.2,0,0
2023,1,31,19,60,9,24.9,15.7,56.0,101325,0,0,0,0,0,0,0,0,0,0,0,14.8,0,0,9999,77777,9,999999999,0,0,0,99,0.2,0,0
2023,1,31,20,60,9,24.2,15.6,59.0,101325,0,0,0,0,0,0,0,0,0,0,0,11.6,0,0,9999,77777,9,999999999,0,0,0,99,0.2,0,0
2023,1,31,21,60,9,23.4,15.5,61.0,101325,0,0,0,0,0,0,0,0,0,0,0,9.8,0,0,9999,77777,9,999999999,0,0,0,99,0.2,0,0
2023,1,31,22,60,9,23.2,15.4,62.0,101325,0,0,0,0,0,0,0,0,0,0,0,11.5,0,0,9999,77777,9,999999999,0,0,0,99,0.2,0,0
2023,1,31,23,60,9,23.2,15.5,62.0,101325,0,0,0,0,0,0,0,0,0,0,0,13.9,0,0,9999,77777,9,999999999,0,0,0,99,0.2,0,0
2023,1,31,24,60,9,23.2,15.8,63.0,101325,0,0,0,0,0,0,0,0,0,0,0,14.8,0,0,9999,77777,9,999999999,0,0,0,99,0.2,0,0
2023,2,1,1,60,9,23.5,16.3,64.0,101325,0,0,0,0,0,0,0,0,0,0,0,15.3,0,0,9999,77777,9,999999999,0,0,0,99,0.2,0,0
2023,2,1,2,60,9,23.3,16.4,65.0,101325,0,0,0,0,0,0,0,0,0,0,0,12.4,0,0,9999,77777,9,999999999,0,0,0,99,0.2,0,0
2023,2,1,3,60,9,23.5,16.4,64.0,101325,0,0,0,0,0,0,0,0,0,0,0,12.4,0,0,9999,77777,9,999999999,0,0,0,99,0.2,0,0
2023,2,1,4,60,9,24.9,16.5,60.0,101325,0,0,0,0,0,0,0,0,0,0,0,14.1,0,0,9999,77777,9,999999999,0,0,0,99,0.2,0,0
2023,2,1,5,60,9,26.9,16.2,52.0,101325,0,0,0,0,0,0,0,0,0,0,0,14.9,0,0,9999,77777,9,999999999,0,0,0,99,0.2,0,0
2023,2,1,6,60,9,28.7,16.0,46.0,101325,0,0,0,0,0,0,0,0,0,0,0,15.2,0,0,9999,77777,9,999999999,0,0,0,99,0.2,0,0
2023,2,1,7,60,9,30.9,15.9,40.0,101325,0,0,0,0,0,0,0,0,0,0,0,15.5,0,0,9999,77777,9,999999999,0,0,0,99,0.2,0,0
2023,2,1,8,60,9,32.7,14.7,34.0,101325,0,0,0,0,0,0,0,0,0,0,0,13.0,0,0,9999,77777,9,999999999,0,0,0,99,0.2,0,0
2023,2,1,9,60,9,33.5,11.0,25.0,101325,0,0,0,0,0,0,0,0,0,0,0,5.4,0,0,9999,77777,9,999999999,0,0,0,99,0.2,0,0
2023,2,1,10,60,9,33.3,10.8,25.0,101325,0,0,0,0,0,0,0,0,0,0,0,1.9,0,0,9999,77777,9,999999999,0,0,0,99,0.2,0,0
2023,2,1,11,60,9,30.8,18.2,47.0,101325,0,0,0,0,0,0,0,0,0,0,0,14.5,0,0,9999,77777,9,999999999,0,0,0,99,0.2,0,0
2023,2,1,12,60,9,29.8,18.6,51.0,101325,0,0,0,0,0,0,0,0,0,0,0,19.4,0,0,9999,77777,9,999999999,0,0,0,99,0.2,0,0
2023,2,1,13,60,9,28.7,20.4,61.0,101325,0,0,0,0,0,0,0,0,0,0,0,17.4,0,0,9999,77777,9,999999999,0,0,0,99,0.2,0,0
2023,2,1,14,60,9,27.4,19.1,60.0,101325,0,0,0,0,0,0,0,0,0,0,0,21.8,0,0,9999,77777,9,999999999,0,0,0,99,0.2,0,0
2023,2,1,15,60,9,27.0,16.8,53.0,101325,0,0,0,0,0,0,0,0,0,0,0,18.6,0,0,9999,77777,9,999999999,0,0,0,99,0.2,0,0
2023,2,1,16,60,9,26.6,16.9,55.0,101325,0,0,0,0,0,0,0,0,0,0,0,10.8,0,0,9999,77777,9,999999999,0,0,0,99,0.2,0,0
2023,2,1,17,60,9,26.5,16.5,54.0,101325,0,0,0,0,0,0,0,0,0,0,0,8.9,0,0,9999,77777,9,999999999,0,0,0,99,0.2,0,0
2023,2,1,18,60,9,26.1,15.4,52.0,101325,0,0,0,0,0,0,0,0,0,0,0,10.7,0,0,9999,77777,9,999999999,0,0,0,99,0.2,0,0
2023,2,1,19,60,9,25.8,14.9,51.0,101325,0,0,0,0,0,0,0,0,0,0,0,13.2,0,0,9999,77777,9,999999999,0,0,0,99,0.2,0,0
2023,2,1,20,60,9,25.2,15.4,55.0,101325,0,0,0,0,0,0,0,0,0,0,0,14.0,0,0,9999,77777,9,999999999,0,0,0,99,0.2,0,0
2023,2,1,21,60,9,24.5,15.6,58.0,101325,0,0,0,0,0,0,0,0,0,0,0,15.3,0,0,9999,77777,9,999999999,0,0,0,99,0.2,0,0
2023,2,1,22,60,9,24.2,15.7,59.0,101325,0,0,0,0,0,0,0,0,0,0,0,16.1,0,0,9999,77777,9,999999999,0,0,0,99,0.2,0,0
2023,2,1,23,60,9,23.9,15.7,60.0,101325,0,0,0,0,0,0,0,0,0,0,0,16.9,0,0,9999,77777,9,999999999,0,0,0,99,0.2,0,0
2023,2,1,24,60,9,23.7,15.7,61.0,101325,0,0,0,0,0,0,0,0,0,0,0,16.9,0,0,9999,77777,9,999999999,0,0,0,99,0.2,0,0
2023,2,2,1,60,9,23.7,15.9,61.0,101325,0,0,0,0,0,0,0,0,0,0,0,17.1,0,0,9999,77777,9,999999999,0,0,0,99,0.2,0,0
2023,2,2,2,60,9,23.4,15.9,63.0,101325,0,0,0,0,0,0,0,0,0,0,0,15.4,0,0,9999,77777,9,999999999,0,0,0,99,0.2,0,0
2023,2,2,3,60,9,23.3,15.9,63.0,101325,0,0,0,0,0,0,0,0,0,0,0,15.6,0,0,9999,77777,9,999999999,0,0,0,99,0.2,0,0
2023,2,2,4,60,9,24.6,16.2,60.0,101325,0,0,0,0,0,0,0,0,0,0,0,17.2,0,0,9999,77777,9,999999999,0,0,0,99,0.2,0,0
2023,2,2,5,60,9,27.3,16.0,50.0,101325,0,0,0,0,0,0,0,0,0,0,0,15.5,0,0,9999,77777,9,999999999,0,0,0,99,0.2,0,0
2023,2,2,6,60,9,30.0,15.1,40.0,101325,0,0,0,0,0,0,0,0,0,0,0,16.1,0,0,9999,77777,9,999999999,0,0,0,99,0.2,0,0
2023,2,2,7,60,9,32.0,14.7,35.0,101325,0,0,0,0,0,0,0,0,0,0,0,16.6,0,0,9999,77777,9,999999999,0,0,0,99,0.2,0,0
2023,2,2,8,60,9,33.4,13.5,30.0,101325,0,0,0,0,0,0,0,0,0,0,0,13.4,0,0,9999,77777,9,999999999,0,0,0,99,0.2,0,0
2023,2,2,9,60,9,33.9,13.1,28.0,101325,0,0,0,0,0,0,0,0,0,0,0,6.8,0,0,9999,77777,9,999999999,0,0,0,99,0.2,0,0
2023,2,2,10,60,9,33.4,12.8,29.0,101325,0,0,0,0,0,0,0,0,0,0,0,5.7,0,0,9999,77777,9,999999999,0,0,0,99,0.2,0,0
2023,2,2,11,60,9,31.6,16.9,41.0,101325,0,0,0,0,0,0,0,0,0,0,0,17.7,0,0,9999,77777,9,999999999,0,0,0,99,0.2,0,0
2023,2,2,12,60,9,29.6,19.9,56.0,101325,0,0,0,0,0,0,0,0,0,0,0,19.9,0,0,9999,77777,9,999999999,0,0,0,99,0.2,0,0
2023,2,2,13,60,9,27.5,18.1,56.0,101325,0,0,0,0,0,0,0,0,0,0,0,19.4,0,0,9999,77777,9,999999999,0,0,0,99,0.2,0,0
2023,2,2,14,60,9,26.0,17.9,61.0,101325,0,0,0,0,0,0,0,0,0,0,0,19.6,0,0,9999,77777,9,999999999,0,0,0,99,0.2,0,0
2023,2,2,15,60,9,25.9,17.4,60.0,101325,0,0,0,0,0,0,0,0,0,0,0,17.0,0,0,9999,77777,9,999999999,0,0,0,99,0.2,0,0
2023,2,2,16,60,9,25.4,17.5,62.0,101325,0,0,0,0,0,0,0,0,0,0,0,15.0,0,0,9999,77777,9,999999999,0,0,0,99,0.2,0,0
2023,2,2,17,60,9,25.5,16.0,56.0,101325,0,0,0,0,0,0,0,0,0,0,0,17.2,0,0,9999,77777,9,999999999,0,0,0,99,0.2,0,0
2023,2,2,18,60,9,25.6,15.0,52.0,101325,0,0,0,0,0,0,0,0,0,0,0,19.1,0,0,9999,77777,9,999999999,0,0,0,99,0.2,0,0
2023,2,2,19,60,9,25.4,14.5,51.0,101325,0,0,0,0,0,0,0,0,0,0,0,16.2,0,0,9999,77777,9,999999999,0,0,0,99,0.2,0,0
2023,2,2,20,60,9,25.0,13.8,50.0,101325,0,0,0,0,0,0,0,0,0,0,0,12.2,0,0,9999,77777,9,999999999,0,0,0,99,0.2,0,0
2023,2,2,21,60,9,24.0,14.0,54.0,101325,0,0,0,0,0,0,0,0,0,0,0,8.7,0,0,9999,77777,9,999999999,0,0,0,99,0.2,0,0
2023,2,2,22,60,9,22.1,14.7,63.0,101325,0,0,0,0,0,0,0,0,0,0,0,8.6,0,0,9999,77777,9,999999999,0,0,0,99,0.2,0,0
2023,2,2,23,60,9,21.4,14.9,66.0,101325,0,0,0,0,0,0,0,0,0,0,0,7.2,0,0,9999,77777,9,999999999,0,0,0,99,0.2,0,0
2023,2,2,24,60,9,21.5,14.9,66.0,101325,0,0,0,0,0,0,0,0,0,0,0,7.2,0,0,9999,77777,9,999999999,0,0,0,99,0.2,0,0
2023,2,3,1,60,9,21.3,15.1,68.0,101325,0,0,0,0,0,0,0,0,0,0,0,7.2,0,0,9999,77777,9,999999999,0,0,0,99,0.2,0,0
2023,2,3,2,60,9,21.1,14.5,66.0,101325,0,0,0,0,0,0,0,0,0,0,0,8.2,0,0,9999,77777,9,999999999,0,0,0,99,0.2,0,0
2023,2,3,3,60,9,21.0,14.2,65.0,101325,0,0,0,0,0,0,0,0,0,0,0,7.7,0,0,9999,77777,9,999999999,0,0,0,99,0.2,0,0
2023,2,3,4,60,9,22.8,14.4,59.0,101325,0,0,0,0,0,0,0,0,0,0,0,8.2,0,0,9999,77777,9,999999999,0,0,0,99,0.2,0,0
2023,2,3,5,60,9,25.4,14.3,50.0,101325,0,0,0,0,0,0,0,0,0,0,0,4.5,0,0,9999,77777,9,999999999,0,0,0,99,0.2,0,0
2023,2,3,6,60,9,28.6,13.3,39.0,101325,0,0,0,0,0,0,0,0,0,0,0,3.8,0,0,9999,77777,9,999999999,0,0,0,99,0.2,0,0
2023,2,3,7,60,9,31.1,11.9,31.0,101325,0,0,0,0,0,0,0,0,0,0,0,5.1,0,0,9999,77777,9,999999999,0,0,0,99,0.2,0,0
2023,2,3,8,60,9,32.3,11.1,27.0,101325,0,0,0,0,0,0,0,0,0,0,0,0.4,0,0,9999,77777,9,999999999,0,0,0,99,0.2,0,0
2023,2,3,9,60,9,31.5,14.8,37.0,101325,0,0,0,0,0,0,0,0,0,0,0,13.1,0,0,9999,77777,9,999999999,0,0,0,99,0.2,0,0
2023,2,3,10,60,9,30.7,15.8,41.0,101325,0,0,0,0,0,0,0,0,0,0,0,16.1,0,0,9999,77777,9,999999999,0,0,0,99,0.2,0,0
2023,2,3,11,60,9,30.0,15.5,41.0,101325,0,0,0,0,0,0,0,0,0,0,0,16.9,0,0,9999,77777,9,999999999,0,0,0,99,0.2,0,0
2023,2,3,12,60,9,28.6,16.5,48.0,101325,0,0,0,0,0,0,0,0,0,0,0,16.9,0,0,9999,77777,9,999999999,0,0,0,99,0.2,0,0
2023,2,3,13,60,9,26.9,17.7,57.0,101325,0,0,0,0,0,0,0,0,0,0,0,16.6,0,0,9999,77777,9,999999999,0,0,0,99,0.2,0,0
2023,2,3,14,60,9,25.5,16.7,58.0,101325,0,0,0,0,0,0,0,0,0,0,0,18.7,0,0,9999,77777,9,999999999,0,0,0,99,0.2,0,0
2023,2,3,15,60,9,24.8,16.1,59.0,101325,0,0,0,0,0,0,0,0,0,0,0,18.2,0,0,9999,77777,9,999999999,0,0,0,99,0.2,0,0
2023,2,3,16,60,9,24.4,17.0,63.0,101325,0,0,0,0,0,0,0,0,0,0,0,15.9,0,0,9999,77777,9,999999999,0,0,0,99,0.2,0,0
2023,2,3,17,60,9,24.0,16.5,63.0,101325,0,0,0,0,0,0,0,0,0,0,0,12.5,0,0,9999,77777,9,999999999,0,0,0,99,0.2,0,0
2023,2,3,18,60,9,23.5,16.4,65.0,101325,0,0,0,0,0,0,0,0,0,0,0,12.0,0,0,9999,77777,9,999999999,0,0,0,99,0.2,0,0
2023,2,3,19,60,9,23.0,15.6,63.0,101325,0,0,0,0,0,0,0,0,0,0,0,7.6,0,0,9999,77777,9,999999999,0,0,0,99,0.2,0,0
2023,2,3,20,60,9,22.1,14.7,63.0,101325,0,0,0,0,0,0,0,0,0,0,0,7.4,0,0,9999,77777,9,999999999,0,0,0,99,0.2,0,0
2023,2,3,21,60,9,21.9,13.7,60.0,101325,0,0,0,0,0,0,0,0,0,0,0,7.6,0,0,9999,77777,9,999999999,0,0,0,99,0.2,0,0
2023,2,3,22,60,9,21.1,13.8,63.0,101325,0,0,0,0,0,0,0,0,0,0,0,10.0,0,0,9999,77777,9,999999999,0,0,0,99,0.2,0,0
2023,2,3,23,60,9,20.6,14.3,67.0,101325,0,0,0,0,0,0,0,0,0,0,0,8.7,0,0,9999,77777,9,999999999,0,0,0,99,0.2,0,0
2023,2,3,24,60,9,20.0,15.6,76.0,101325,0,0,0,0,0,0,0,0,0,0,0,7.0,0,0,9999,77777,9,999999999,0,0,0,99,0.2,0,0
2023,2,4,1,60,9,19.8,14.5,72.0,101325,0,0,0,0,0,0,0,0,0,0,0,6.8,0,0,9999,77777,9,999999999,0,0,0,99,0.2,0,0
2023,2,4,2,60,9,18.7,15.1,79.0,101325,0,0,0,0,0,0,0,0,0,0,0,7.6,0,0,9999,77777,9,999999999,0,0,0,99,0.2,0,0
2023,2,4,3,60,9,18.7,14.9,79.0,101325,0,0,0,0,0,0,0,0,0,0,0,6.9,0,0,9999,77777,9,999999999,0,0,0,99,0.2,0,0
2023,2,4,4,60,9,21.6,14.2,63.0,101325,0,0,0,0,0,0,0,0,0,0,0,7.8,0,0,9999,77777,9,999999999,0,0,0,99,0.2,0,0
2023,2,4,5,60,9,24.5,13.7,51.0,101325,0,0,0,0,0,0,0,0,0,0,0,6.8,0,0,9999,77777,9,999999999,0,0,0,99,0.2,0,0
2023,2,4,6,60,9,27.8,13.1,40.0,101325,0,0,0,0,0,0,0,0,0,0,0,5.0,0,0,9999,77777,9,999999999,0,0,0,99,0.2,0,0
2023,2,4,7,60,9,30.5,11.7,31.0,101325,0,0,0,0,0,0,0,0,0,0,0,3.4,0,0,9999,77777,9,999999999,0,0,0,99,0.2,0,0
2023,2,4,8,60,9,31.7,11.3,29.0,101325,0,0,0,0,0,0,0,0,0,0,0,3.6,0,0,9999,77777,9,999999999,0,0,0,99,0.2,0,0
2023,2,4,9,60,9,31.3,14.5,36.0,101325,0,0,0,0,0,0,0,0,0,0,0,11.5,0,0,9999,77777,9,999999999,0,0,0,99,0.2,0,0
2023,2,4,10,60,9,30.4,16.0,42.0,101325,0,0,0,0,0,0,0,0,0,0,0,15.0,0,0,9999,77777,9,999999999,0,0,0,99,0.2,0,0
2023,2,4,11,60,9,29.3,15.4,43.0,101325,0,0,0,0,0,0,0,0,0,0,0,17.7,0,0,9999,77777,9,999999999,0,0,0,99,0.2,0,0
2023,2,4,12,60,9,28.1,15.7,47.0,101325,0,0,0,0,0,0,0,0,0,0,0,17.8,0,0,9999,77777,9,999999999,0,0,0,99,0.2,0,0
2023,2,4,13,60,9,26.7,18.3,60.0,101325,0,0,0,0,0,0,0,0,0,0,0,15.5,0,0,9999,77777,9,999999999,0,0,0,99,0.2,0,0
2023,2,4,14,60,9,25.1,19.5,71.0,101325,0,0,0,0,0,0,0,0,0,0,0,16.7,0,0,9999,77777,9,999999999,0,0,0,99,0.2,0,0
2023,2,4,15,60,9,24.8,17.6,64.0,101325,0,0,0,0,0,0,0,0,0,0,0,17.1,0,0,9999,77777,9,999999999,0,0,0,99,0.2,0,0
2023,2,4,16,60,9,25.1,15.8,56.0,101325,0,0,0,0,0,0,0,0,0,0,0,18.3,0,0,9999,77777,9,999999999,0,0,0,99,0.2,0,0
2023,2,4,17,60,9,24.8,15.1,55.0,101325,0,0,0,0,0,0,0,0,0,0,0,17.5,0,0,9999,77777,9,999999999,0,0,0,99,0.2,0,0
2023,2,4,18,60,9,24.5,13.8,51.0,101325,0,0,0,0,0,0,0,0,0,0,0,16.0,0,0,9999,77777,9,999999999,0,0,0,99,0.2,0,0
2023,2,4,19,60,9,23.6,12.9,51.0,101325,0,0,0,0,0,0,0,0,0,0,0,8.7,0,0,9999,77777,9,999999999,0,0,0,99,0.2,0,0
2023,2,4,20,60,9,22.8,13.1,54.0,101325,0,0,0,0,0,0,0,0,0,0,0,7.7,0,0,9999,77777,9,999999999,0,0,0,99,0.2,0,0
2023,2,4,21,60,9,20.7,14.3,67.0,101325,0,0,0,0,0,0,0,0,0,0,0,8.4,0,0,9999,77777,9,999999999,0,0,0,99,0.2,0,0
2023,2,4,22,60,9,22.9,14.8,60.0,101325,0,0,0,0,0,0,0,0,0,0,0,6.4,0,0,9999,77777,9,999999999,0,0,0,99,0.2,0,0
2023,2,4,23,60,9,22.8,14.8,61.0,101325,0,0,0,0,0,0,0,0,0,0,0,3.8,0,0,9999,77777,9,999999999,0,0,0,99,0.2,0,0
2023,2,4,24,60,9,22.0,15.3,66.0,101325,0,0,0,0,0,0,0,0,0,0,0,4.1,0,0,9999,77777,9,999999999,0,0,0,99,0.2,0,0
2023,2,5,1,60,9,20.5,17.3,82.0,101325,0,0,0,0,0,0,0,0,0,0,0,4.3,0,0,9999,77777,9,999999999,0,0,0,99,0.2,0,0
2023,2,5,2,60,9,19.7,16.8,83.0,101325,0,0,0,0,0,0,0,0,0,0,0,5.4,0,0,9999,77777,9,999999999,0,0,0,99,0.2,0,0
2023,2,5,3,60,9,20.0,16.7,81.0,101325,0,0,0,0,0,0,0,0,0,0,0,4.6,0,0,9999,77777,9,999999999,0,0,0,99,0.2,0,0
2023,2,5,4,60,9,21.3,15.8,71.0,101325,0,0,0,0,0,0,0,0,0,0,0,4.7,0,0,9999,77777,9,999999999,0,0,0,99,0.2,0,0
2023,2,5,5,60,9,24.2,14.0,53.0,101325,0,0,0,0,0,0,0,0,0,0,0,3.7,0,0,9999,77777,9,999999999,0,0,0,99,0.2,0,0
2023,2,5,6,60,9,27.3,13.2,42.0,101325,0,0,0,0,0,0,0,0,0,0,0,0.8,0,0,9999,77777,9,999999999,0,0,0,99,0.2,0,0
2023,2,5,7,60,9,29.7,12.6,35.0,101325,0,0,0,0,0,0,0,0,0,0,0,2.2,0,0,9999,77777,9,999999999,0,0,0,99,0.2,0,0
2023,2,5,8,60,9,30.9,12.8,33.0,101325,0,0,0,0,0,0,0,0,0,0,0,6.1,0,0,9999,77777,9,999999999,0,0,0,99,0.2,0,0
2023,2,5,9,60,9,30.9,14.7,38.0,101325,0,0,0,0,0,0,0,0,0,0,0,10.5,0,0,9999,77777,9,999999999,0,0,0,99,0.2,0,0
2023,2,5,10,60,9,30.5,15.1,39.0,101325,0,0,0,0,0,0,0,0,0,0,0,12.5,0,0,9999,77777,9,999999999,0,0,0,99,0.2,0,0
2023,2,5,11,60,9,29.7,15.5,42.0,101325,0,0,0,0,0,0,0,0,0,0,0,12.8,0,0,9999,77777,9,999999999,0,0,0,99,0.2,0,0
2023,2,5,12,60,9,28.6,16.2,47.0,101325,0,0,0,0,0,0,0,0,0,0,0,12.9,0,0,9999,77777,9,999999999,0,0,0,99,0.2,0,0
2023,2,5,13,60,9,26.9,17.7,57.0,101325,0,0,0,0,0,0,0,0,0,0,0,12.0,0,0,9999,77777,9,999999999,0,0,0,99,0.2,0,0
2023,2,5,14,60,9,24.6,18.9,71.0,101325,0,0,0,0,0,0,0,0,0,0,0,11.5,0,0,9999,77777,9,999999999,0,0,0,99,0.2,0,0
2023,2,5,15,60,9,23.5,19.4,78.0,101325,0,0,0,0,0,0,0,0,0,0,0,12.7,0,0,9999,77777,9,999999999,0,0,0,99,0.2,0,0
2023,2,5,16,60,9,23.0,19.4,80.0,101325,0,0,0,0,0,0,0,0,0,0,0,12.2,0,0,9999,77777,9,999999999,0,0,0,99,0.2,0,0
2023,2,5,17,60,9,22.4,19.4,83.0,101325,0,0,0,0,0,0,0,0,0,0,0,10.6,0,0,9999,77777,9,999999999,0,0,0,99,0.2,0,0
2023,2,5,18,60,9,21.5,19.3,87.0,101325,0,0,0,0,0,0,0,0,0,0,0,6.5,0,0,9999,77777,9,999999999,0,0,0,99,0.2,0,0
2023,2,5,19,60,9,19.8,17.8,89.0,101325,0,0,0,0,0,0,0,0,0,0,0,8.6,0,0,9999,77777,9,999999999,0,0,0,99,0.2,0,0
2023,2,5,20,60,9,21.9,17.2,75.0,101325,0,0,0,0,0,0,0,0,0,0,0,5.2,0,0,9999,77777,9,999999999,0,0,0,99,0.2,0,0
2023,2,5,21,60,9,19.0,17.1,88.0,101325,0,0,0,0,0,0,0,0,0,0,0,7.9,0,0,9999,77777,9,999999999,0,0,0,99,0.2,0,0
2023,2,5,22,60,9,18.6,17.3,92.0,101325,0,0,0,0,0,0,0,0,0,0,0,8.9,0,0,9999,77777,9,999999999,0,0,0,99,0.2,0,0
2023,2,5,23,60,9,19.3,18.1,93.0,101325,0,0,0,0,0,0,0,0,0,0,0,7.2,0,0,9999,77777,9,999999999,0,0,0,99,0.2,0,0
2023,2,5,24,60,9,19.3,18.4,95.0,101325,0,0,0,0,0,0,0,0,0,0,0,6.6,0,0,9999,77777,9,999999999,0,0,0,99,0.2,0,0
2023,2,6,1,60,9,19.2,18.7,97.0,101325,0,0,0,0,0,0,0,0,0,0,0,9.0,0,0,9999,77777,9,999999999,0,0,0,99,0.2,0,0
2023,2,6,2,60,9,18.1,17.7,97.0,101325,0,0,0,0,0,0,0,0,0,0,0,9.0,0,0,9999,77777,9,999999999,0,0,0,99,0.2,0,0
2023,2,6,3,60,9,17.9,17.2,95.0,101325,0,0,0,0,0,0,0,0,0,0,0,8.9,0,0,9999,77777,9,999999999,0,0,0,99,0.2,0,0
2023,2,6,4,60,9,21.3,18.2,83.0,101325,0,0,0,0,0,0,0,0,0,0,0,7.6,0,0,9999,77777,9,999999999,0,0,0,99,0.2,0,0
2023,2,6,5,60,9,23.9,16.7,64.0,101325,0,0,0,0,0,0,0,0,0,0,0,6.0,0,0,9999,77777,9,999999999,0,0,0,99,0.2,0,0
2023,2,6,6,60,9,26.8,15.2,49.0,101325,0,0,0,0,0,0,0,0,0,0,0,7.3,0,0,9999,77777,9,999999999,0,0,0,99,0.2,0,0
2023,2,6,7,60,9,28.7,14.3,41.0,101325,0,0,0,0,0,0,0,0,0,0,0,8.3,0,0,9999,77777,9,999999999,0,0,0,99,0.2,0,0
2023,2,6,8,60,9,29.4,15.3,42.0,101325,0,0,0,0,0,0,0,0,0,0,0,13.0,0,0,9999,77777,9,999999999,0,0,0,99,0.2,0,0
2023,2,6,9,60,9,29.0,17.5,50.0,101325,0,0,0,0,0,0,0,0,0,0,0,19.4,0,0,9999,77777,9,999999999,0,0,0,99,0.2,0,0
2023,2,6,10,60,9,29.1,16.7,47.0,101325,0,0,0,0,0,0,0,0,0,0,0,20.4,0,0,9999,77777,9,999999999,0,0,0,99,0.2,0,0
2023,2,6,11,60,9,28.8,16.1,46.0,101325,0,0,0,0,0,0,0,0,0,0,0,19.6,0,0,9999,77777,9,999999999,0,0,0,99,0.2,0,0
2023,2,6,12,60,9,28.1,16.2,48.0,101325,0,0,0,0,0,0,0,0,0,0,0,18.7,0,0,9999,77777,9,999999999,0,0,0,99,0.2,0,0
2023,2,6,13,60,9,26.8,16.9,54.0,101325,0,0,0,0,0,0,0,0,0,0,0,16.0,0,0,9999,77777,9,999999999,0,0,0,99,0.2,0,0
2023,2,6,14,60,9,25.4,16.6,58.0,101325,0,0,0,0,0,0,0,0,0,0,0,18.0,0,0,9999,77777,9,999999999,0,0,0,99,0.2,0,0
2023,2,6,15,60,9,24.7,15.1,55.0,101325,0,0,0,0,0,0,0,0,0,0,0,18.4,0,0,9999,77777,9,999999999,0,0,0,99,0.2,0,0
2023,2,6,16,60,9,24.6,14.2,52.0,101325,0,0,0,0,0,0,0,0,0,0,0,17.8,0,0,9999,77777,9,999999999,0,0,0,99,0.2,0,0
2023,2,6,17,60,9,24.4,12.8,48.0,101325,0,0,0,0,0,0,0,0,0,0,0,16.1,0,0,9999,77777,9,999999999,0,0,0,99,0.2,0,0
2023,2,6,18,60,9,23.9,11.5,46.0,101325,0,0,0,0,0,0,0,0,0,0,0,13.6,0,0,9999,77777,9,999999999,0,0,0,99,0.2,0,0
2023,2,6,19,60,9,22.8,16.4,67.0,101325,0,0,0,0,0,0,0,0,0,0,0,14.5,0,0,9999,77777,9,999999999,0,0,0,99,0.2,0,0
2023,2,6,20,60,9,22.3,17.1,72.0,101325,0,0,0,0,0,0,0,0,0,0,0,12.6,0,0,9999,77777,9,999999999,0,0,0,99,0.2,0,0
2023,2,6,21,60,9,21.7,17.4,77.0,101325,0,0,0,0,0,0,0,0,0,0,0,10.8,0,0,9999,77777,9,999999999,0,0,0,99,0.2,0,0
2023,2,6,22,60,9,20.8,16.7,77.0,101325,0,0,0,0,0,0,0,0,0,0,0,8.4,0,0,9999,77777,9,999999999,0,0,0,99,0.2,0,0
2023,2,6,23,60,9,20.1,15.7,76.0,101325,0,0,0,0,0,0,0,0,0,0,0,7.6,0,0,9999,77777,9,999999999,0,0,0,99,0.2,0,0
2023,2,6,24,60,9,19.7,15.2,75.0,101325,0,0,0,0,0,0,0,0,0,0,0,7.4,0,0,9999,77777,9,999999999,0,0,0,99,0.2,0,0
2023,2,7,1,60,9,20.8,15.7,72.0,101325,0,0,0,0,0,0,0,0,0,0,0,10.8,0,0,9999,77777,9,999999999,0,0,0,99,0.2,0,0
2023,2,7,2,60,9,20.1,15.3,74.0,101325,0,0,0,0,0,0,0,0,0,0,0,8.8,0,0,9999,77777,9,999999999,0,0,0,99,0.2,0,0
2023,2,7,3,60,9,19.2,15.4,79.0,101325,0,0,0,0,0,0,0,0,0,0,0,6.3,0,0,9999,77777,9,999999999,0,0,0,99,0.2,0,0
2023,2,7,4,60,9,21.4,15.5,69.0,101325,0,0,0,0,0,0,0,0,0,0,0,7.6,0,0,9999,77777,9,999999999,0,0,0,99,0.2,0,0
2023,2,7,5,60,9,24.1,14.0,53.0,101325,0,0,0,0,0,0,0,0,0,0,0,6.9,0,0,9999,77777,9,999999999,0,0,0,99,0.2,0,0
2023,2,7,6,60,9,27.4,12.5,40.0,101325,0,0,0,0,0,0,0,0,0,0,0,7.4,0,0,9999,77777,9,999999999,0,0,0,99,0.2,0,0
2023,2,7,7,60,9,30.0,10.8,31.0,101325,0,0,0,0,0,0,0,0,0,0,0,8.7,0,0,9999,77777,9,999999999,0,0,0,99,0.2,0,0
2023,2,7,8,60,9,31.3,10.2,27.0,101325,0,0,0,0,0,0,0,0,0,0,0,9.9,0,0,9999,77777,9,999999999,0,0,0,99,0.2,0,0
2023,2,7,9,60,9,31.3,13.3,33.0,101325,0,0,0,0,0,0,0,0,0,0,0,15.3,0,0,9999,77777,9,999999999,0,0,0,99,0.2,0,0
2023,2,7,10,60,9,29.7,17.4,48.0,101325,0,0,0,0,0,0,0,0,0,0,0,21.4,0,0,9999,77777,9,999999999,0,0,0,99,0.2,0,0
2023,2,7,11,60,9,29.3,15.5,43.0,101325,0,0,0,0,0,0,0,0,0,0,0,22.7,0,0,9999,77777,9,999999999,0,0,0,99,0.2,0,0
2023,2,7,12,60,9,28.5,13.9,41.0,101325,0,0,0,0,0,0,0,0,0,0,0,20.9,0,0,9999,77777,9,999999999,0,0,0,99,0.2,0,0
2023,2,7,13,60,9,26.6,15.4,50.0,101325,0,0,0,0,0,0,0,0,0,0,0,18.7,0,0,9999,77777,9,999999999,0,0,0,99,0.2,0,0
2023,2,7,14,60,9,24.8,18.4,68.0,101325,0,0,0,0,0,0,0,0,0,0,0,20.3,0,0,9999,77777,9,999999999,0,0,0,99,0.2,0,0
2023,2,7,15,60,9,23.9,18.8,73.0,101325,0,0,0,0,0,0,0,0,0,0,0,19.6,0,0,9999,77777,9,999999999,0,0,0,99,0.2,0,0
2023,2,7,16,60,9,23.6,19.1,76.0,101325,0,0,0,0,0,0,0,0,0,0,0,19.3,0,0,9999,77777,9,999999999,0,0,0,99,0.2,0,0
2023,2,7,17,60,9,23.3,18.4,74.0,101325,0,0,0,0,0,0,0,0,0,0,0,17.8,0,0,9999,77777,9,999999999,0,0,0,99,0.2,0,0
2023,2,7,18,60,9,22.9,17.3,70.0,101325,0,0,0,0,0,0,0,0,0,0,0,14.1,0,0,9999,77777,9,999999999,0,0,0,99,0.2,0,0
2023,2,7,19,60,9,22.2,16.4,69.0,101325,0,0,0,0,0,0,0,0,0,0,0,8.4,0,0,9999,77777,9,999999999,0,0,0,99,0.2,0,0
2023,2,7,20,60,9,20.8,16.1,74.0,101325,0,0,0,0,0,0,0,0,0,0,0,8.0,0,0,9999,77777,9,999999999,0,0,0,99,0.2,0,0
2023,2,7,21,60,9,19.7,16.2,80.0,101325,0,0,0,0,0,0,0,0,0,0,0,9.6,0,0,9999,77777,9,999999999,0,0,0,99,0.2,0,0
2023,2,7,22,60,9,19.1,16.2,83.0,101325,0,0,0,0,0,0,0,0,0,0,0,10.0,0,0,9999,77777,9,999999999,0,0,0,99,0.2,0,0
2023,2,7,23,60,9,18.8,16.0,84.0,101325,0,0,0,0,0,0,0,0,0,0,0,9.3,0,0,9999,77777,9,999999999,0,0,0,99,0.2,0,0
2023,2,7,24,60,9,18.7,15.4,81.0,101325,0,0,0,0,0,0,0,0,0,0,0,8.5,0,0,9999,77777,9,999999999,0,0,0,99,0.2,0,0
2023,2,8,1,60,9,18.6,15.5,82.0,101325,0,0,0,0,0,0,0,0,0,0,0,8.2,0,0,9999,77777,9,999999999,0,0,0,99,0.2,0,0
2023,2,8,2,60,9,17.6,14.7,83.0,101325,0,0,0,0,0,0,0,0,0,0,0,8.1,0,0,9999,77777,9,999999999,0,0,0,99,0.2,0,0
2023,2,8,3,60,9,17.8,14.5,81.0,101325,0,0,0,0,0,0,0,0,0,0,0,6.9,0,0,9999,77777,9,999999999,0,0,0,99,0.2,0,0
2023,2,8,4,60,9,20.8,14.1,65.0,101325,0,0,0,0,0,0,0,0,0,0,0,7.4,0,0,9999,77777,9,999999999,0,0,0,99,0.2,0,0
2023,2,8,5,60,9,24.2,13.6,51.0,101325,0,0,0,0,0,0,0,0,0,0,0,6.4,0,0,9999,77777,9,999999999,0,0,0,99,0.2,0,0
2023,2,8,6,60,9,27.9,12.6,39.0,101325,0,0,0,0,0,0,0,0,0,0,0,6.6,0,0,9999,77777,9,999999999,0,0,0,99,0.2,0,0
2023,2,8,7,60,9,30.3,12.6,34.0,101325,0,0,0,0,0,0,0,0,0,0,0,7.1,0,0,9999,77777,9,999999999,0,0,0,99,0.2,0,0
2023,2,8,8,60,9,31.2,14.5,36.0,101325,0,0,0,0,0,0,0,0,0,0,0,10.4,0,0,9999,77777,9,999999999,0,0,0,99,0.2,0,0
2023,2,8,9,60,9,31.2,16.7,42.0,101325,0,0,0,0,0,0,0,0,0,0,0,13.7,0,0,9999,77777,9,999999999,0,0,0,99,0.2,0,0
2023,2,8,10,60,9,30.9,17.2,44.0,101325,0,0,0,0,0,0,0,0,0,0,0,16.4,0,0,9999,77777,9,999999999,0,0,0,99,0.2,0,0
2023,2,8,11,60,9,30.2,16.3,43.0,101325,0,0,0,0,0,0,0,0,0,0,0,18.4,0,0,9999,77777,9,999999999,0,0,0,99,0.2,0,0
2023,2,8,12,60,9,29.2,16.1,45.0,101325,0,0,0,0,0,0,0,0,0,0,0,17.6,0,0,9999,77777,9,999999999,0,0,0,99,0.2,0,0
2023,2,8,13,60,9,27.5,18.1,57.0,101325,0,0,0,0,0,0,0,0,0,0,0,17.0,0,0,9999,77777,9,999999999,0,0,0,99,0.2,0,0
2023,2,8,14,60,9,26.2,17.8,60.0,101325,0,0,0,0,0,0,0,0,0,0,0,19.1,0,0,9999,77777,9,999999999,0,0,0,99,0.2,0,0
2023,2,8,15,60,9,25.9,16.6,57.0,101325,0,0,0,0,0,0,0,0,0,0,0,18.4,0,0,9999,77777,9,999999999,0,0,0,99,0.2,0,0
2023,2,8,16,60,9,25.9,15.4,52.0,101325,0,0,0,0,0,0,0,0,0,0,0,17.9,0,0,9999,77777,9,999999999,0,0,0,99,0.2,0,0
2023,2,8,17,60,9,25.4,14.4,51.0,101325,0,0,0,0,0,0,0,0,0,0,0,14.1,0,0,9999,77777,9,999999999,0,0,0,99,0.2,0,0
2023,2,8,18,60,9,24.8,13.6,50.0,101325,0,0,0,0,0,0,0,0,0,0,0,10.6,0,0,9999,77777,9,999999999,0,0,0,99,0.2,0,0
2023,2,8,19,60,9,22.6,13.6,57.0,101325,0,0,0,0,0,0,0,0,0,0,0,9.0,0,0,9999,77777,9,999999999,0,0,0,99,0.2,0,0
2023,2,8,20,60,9,22.6,13.7,57.0,101325,0,0,0,0,0,0,0,0,0,0,0,9.0,0,0,9999,77777,9,999999999,0,0,0,99,0.2,0,0
2023,2,8,21,60,9,22.4,13.8,58.0,101325,0,0,0,0,0,0,0,0,0,0,0,8.2,0,0,9999,77777,9,999999999,0,0,0,99,0.2,0,0
2023,2,8,22,60,9,21.4,13.9,63.0,101325,0,0,0,0,0,0,0,0,0,0,0,8.4,0,0,9999,77777,9,999999999,0,0,0,99,0.2,0,0
2023,2,8,23,60,9,19.8,14.1,70.0,101325,0,0,0,0,0,0,0,0,0,0,0,9.6,0,0,9999,77777,9,999999999,0,0,0,99,0.2,0,0
2023,2,8,24,60,9,19.3,13.3,68.0,101325,0,0,0,0,0,0,0,0,0,0,0,8.3,0,0,9999,77777,9,999999999,0,0,0,99,0.2,0,0
2023,2,9,1,60,9,19.8,13.5,67.0,101325,0,0,0,0,0,0,0,0,0,0,0,6.6,0,0,9999,77777,9,999999999,0,0,0,99,0.2,0,0
2023,2,9,2,60,9,19.3,13.5,69.0,101325,0,0,0,0,0,0,0,0,0,0,0,7.1,0,0,9999,77777,9,999999999,0,0,0,99,0.2,0,0
2023,2,9,3,60,9,19.2,14.0,72.0,101325,0,0,0,0,0,0,0,0,0,0,0,6.1,0,0,9999,77777,9,999999999,0,0,0,99,0.2,0,0
2023,2,9,4,60,9,22.2,14.0,60.0,101325,0,0,0,0,0,0,0,0,0,0,0,8.3,0,0,9999,77777,9,999999999,0,0,0,99,0.2,0,0
2023,2,9,5,60,9,25.9,14.2,49.0,101325,0,0,0,0,0,0,0,0,0,0,0,7.2,0,0,9999,77777,9,999999999,0,0,0,99,0.2,0,0
2023,2,9,6,60,9,30.1,13.0,35.0,101325,0,0,0,0,0,0,0,0,0,0,0,5.5,0,0,9999,77777,9,999999999,0,0,0,99,0.2,0,0
2023,2,9,7,60,9,32.8,12.6,29.0,101325,0,0,0,0,0,0,0,0,0,0,0,2.4,0,0,9999,77777,9,999999999,0,0,0,99,0.2,0,0
2023,2,9,8,60,9,33.7,13.1,29.0,101325,0,0,0,0,0,0,0,0,0,0,0,4.7,0,0,9999,77777,9,999999999,0,0,0,99,0.2,0,0
2023,2,9,9,60,9,33.1,15.8,36.0,101325,0,0,0,0,0,0,0,0,0,0,0,11.2,0,0,9999,77777,9,999999999,0,0,0,99,0.2,0,0
2023,2,9,10,60,9,32.1,16.2,38.0,101325,0,0,0,0,0,0,0,0,0,0,0,14.6,0,0,9999,77777,9,999999999,0,0,0,99,0.2,0,0
2023,2,9,11,60,9,30.9,15.9,41.0,101325,0,0,0,0,0,0,0,0,0,0,0,16.4,0,0,9999,77777,9,999999999,0,0,0,99,0.2,0,0
2023,2,9,12,60,9,29.4,17.5,49.0,101325,0,0,0,0,0,0,0,0,0,0,0,17.8,0,0,9999,77777,9,999999999,0,0,0,99,0.2,0,0
2023,2,9,13,60,9,27.7,18.7,58.0,101325,0,0,0,0,0,0,0,0,0,0,0,18.1,0,0,9999,77777,9,999999999,0,0,0,99,0.2,0,0
2023,2,9,14,60,9,25.8,17.7,61.0,101325,0,0,0,0,0,0,0,0,0,0,0,18.4,0,0,9999,77777,9,999999999,0,0,0,99,0.2,0,0
2023,2,9,15,60,9,25.5,17.2,60.0,101325,0,0,0,0,0,0,0,0,0,0,0,18.9,0,0,9999,77777,9,999999999,0,0,0,99,0.2,0,0
2023,2,9,16,60,9,25.6,15.4,53.0,101325,0,0,0,0,0,0,0,0,0,0,0,17.6,0,0,9999,77777,9,999999999,0,0,0,99,0.2,0,0
2023,2,9,17,60,9,25.3,14.6,52.0,101325,0,0,0,0,0,0,0,0,0,0,0,15.3,0,0,9999,77777,9,999999999,0,0,0,99,0.2,0,0
2023,2,9,18,60,9,23.4,13.6,54.0,101325,0,0,0,0,0,0,0,0,0,0,0,6.9,0,0,9999,77777,9,999999999,0,0,0,99,0.2,0,0
2023,2,9,19,60,9,23.1,12.2,50.0,101325,0,0,0,0,0,0,0,0,0,0,0,9.0,0,0,9999,77777,9,999999999,0,0,0,99,0.2,0,0
2023,2,9,20,60,9,21.3,12.4,57.0,101325,0,0,0,0,0,0,0,0,0,0,0,9.5,0,0,9999,77777,9,999999999,0,0,0,99,0.2,0,0
2023,2,9,21,60,9,20.4,13.6,65.0,101325,0,0,0,0,0,0,0,0,0,0,0,10.2,0,0,9999,77777,9,999999999,0,0,0,99,0.2,0,0
2023,2,9,22,60,9,21.0,15.7,71.0,101325,0,0,0,0,0,0,0,0,0,0,0,8.0,0,0,9999,77777,9,999999999,0,0,0,99,0.2,0,0
2023,2,9,23,60,9,21.4,15.4,68.0,101325,0,0,0,0,0,0,0,0,0,0,0,9.8,0,0,9999,77777,9,999999999,0,0,0,99,0.2,0,0
2023,2,9,24,60,9,21.2,14.7,66.0,101325,0,0,0,0,0,0,0,0,0,0,0,10.5,0,0,9999,77777,9,999999999,0,0,0,99,0.2,0,0
2023,2,10,1,60,9,21.1,15.3,70.0,101325,0,0,0,0,0,0,0,0,0,0,0,9.1,0,0,9999,77777,9,999999999,0,0,0,99,0.2,0,0
2023,2,10,2,60,9,19.3,14.0,71.0,101325,0,0,0,0,0,0,0,0,0,0,0,8.4,0,0,9999,77777,9,999999999,0,0,0,99,0.2,0,0
2023,2,10,3,60,9,18.5,14.4,77.0,101325,0,0,0,0,0,0,0,0,0,0,0,8.8,0,0,9999,77777,9,999999999,0,0,0,99,0.2,0,0
2023,2,10,4,60,9,22.0,13.8,60.0,101325,0,0,0,0,0,0,0,0,0,0,0,6.6,0,0,9999,77777,9,999999999,0,0,0,99,0.2,0,0
2023,2,10,5,60,9,25.3,12.8,46.0,101325,0,0,0,0,0,0,0,0,0,0,0,4.2,0,0,9999,77777,9,999999999,0,0,0,99,0.2,0,0
2023,2,10,6,60,9,28.7,11.3,34.0,101325,0,0,0,0,0,0,0,0,0,0,0,4.0,0,0,9999,77777,9,999999999,0,0,0,99,0.2,0,0
2023,2,10,7,60,9,30.9,11.0,29.0,101325,0,0,0,0,0,0,0,0,0,0,0,7.9,0,0,9999,77777,9,999999999,0,0,0,99,0.2,0,0
2023,2,10,8,60,9,31.5,13.2,33.0,101325,0,0,0,0,0,0,0,0,0,0,0,12.4,0,0,9999,77777,9,999999999,0,0,0,99,0.2,0,0
2023,2,10,9,60,9,31.3,14.9,37.0,101325,0,0,0,0,0,0,0,0,0,0,0,15.3,0,0,9999,77777,9,999999999,0,0,0,99,0.2,0,0
2023,2,10,10,60,9,30.6,15.1,39.0,101325,0,0,0,0,0,0,0,0,0,0,0,17.5,0,0,9999,77777,9,999999999,0,0,0,99,0.2,0,0
2023,2,10,11,60,9,29.9,15.8,43.0,101325,0,0,0,0,0,0,0,0,0,0,0,17.3,0,0,9999,77777,9,999999999,0,0,0,99,0.2,0,0
2023,2,10,12,60,9,28.9,17.1,49.0,101325,0,0,0,0,0,0,0,0,0,0,0,17.9,0,0,9999,77777,9,999999999,0,0,0,99,0.2,0,0
2023,2,10,13,60,9,26.7,18.7,62.0,101325,0,0,0,0,0,0,0,0,0,0,0,17.7,0,0,9999,77777,9,999999999,0,0,0,99,0.2,0,0
2023,2,10,14,60,9,25.0,18.1,66.0,101325,0,0,0,0,0,0,0,0,0,0,0,20.1,0,0,9999,77777,9,999999999,0,0,0,99,0.2,0,0
2023,2,10,15,60,9,24.2,17.2,65.0,101325,0,0,0,0,0,0,0,0,0,0,0,20.5,0,0,9999,77777,9,999999999,0,0,0,99,0.2,0,0
2023,2,10,16,60,9,23.9,16.7,64.0,101325,0,0,0,0,0,0,0,0,0,0,0,19.3,0,0,9999,77777,9,999999999,0,0,0,99,0.2,0,0
2023,2,10,17,60,9,23.6,15.8,62.0,101325,0,0,0,0,0,0,0,0,0,0,0,17.0,0,0,9999,77777,9,999999999,0,0,0,99,0.2,0,0
2023,2,10,18,60,9,22.2,15.5,66.0,101325,0,0,0,0,0,0,0,0,0,0,0,6.9,0,0,9999,77777,9,999999999,0,0,0,99,0.2,0,0
2023,2,10,19,60,9,20.0,15.4,75.0,101325,0,0,0,0,0,0,0,0,0,0,0,9.0,0,0,9999,77777,9,999999999,0,0,0,99,0.2,0,0
2023,2,10,20,60,9,20.9,14.9,68.0,101325,0,0,0,0,0,0,0,0,0,0,0,8.7,0,0,9999,77777,9,999999999,0,0,0,99,0.2,0,0
2023,2,10,21,60,9,20.5,13.5,64.0,101325,0,0,0,0,0,0,0,0,0,0,0,8.3,0,0,9999,77777,9,999999999,0,0,0,99,0.2,0,0
2023,2,10,22,60,9,19.6,12.8,65.0,101325,0,0,0,0,0,0,0,0,0,0,0,8.0,0,0,9999,77777,9,999999999,0,0,0,99,0.2,0,0
2023,2,10,23,60,9,19.0,12.6,66.0,101325,0,0,0,0,0,0,0,0,0,0,0,8.6,0,0,9999,77777,9,999999999,0,0,0,99,0.2,0,0
2023,2,10,24,60,9,18.2,12.1,68.0,101325,0,0,0,0,0,0,0,0,0,0,0,10.5,0,0,9999,77777,9,999999999,0,0,0,99,0.2,0,0
2023,2,11,1,60,9,19.3,12.5,65.0,101325,0,0,0,0,0,0,0,0,0,0,0,10.0,0,0,9999,77777,9,999999999,0,0,0,99,0.2,0,0
2023,2,11,2,60,9,18.6,12.9,69.0,101325,0,0,0,0,0,0,0,0,0,0,0,10.1,0,0,9999,77777,9,999999999,0,0,0,99,0.2,0,0
2023,2,11,3,60,9,17.8,14.1,79.0,101325,0,0,0,0,0,0,0,0,0,0,0,9.4,0,0,9999,77777,9,999999999,0,0,0,99,0.2,0,0
2023,2,11,4,60,9,21.7,13.7,60.0,101325,0,0,0,0,0,0,0,0,0,0,0,9.3,0,0,9999,77777,9,999999999,0,0,0,99,0.2,0,0
2023,2,11,5,60,9,25.0,11.4,42.0,101325,0,0,0,0,0,0,0,0,0,0,0,7.8,0,0,9999,77777,9,999999999,0,0,0,99,0.2,0,0
2023,2,11,6,60,9,28.6,9.5,30.0,101325,0,0,0,0,0,0,0,0,0,0,0,8.6,0,0,9999,77777,9,999999999,0,0,0,99,0.2,0,0
2023,2,11,7,60,9,31.1,10.0,27.0,101325,0,0,0,0,0,0,0,0,0,0,0,10.6,0,0,9999,77777,9,999999999,0,0,0,99,0.2,0,0
2023,2,11,8,60,9,31.7,13.4,33.0,101325,0,0,0,0,0,0,0,0,0,0,0,13.8,0,0,9999,77777,9,999999999,0,0,0,99,0.2,0,0
2023,2,11,9,60,9,31.2,17.1,43.0,101325,0,0,0,0,0,0,0,0,0,0,0,16.9,0,0,9999,77777,9,999999999,0,0,0,99,0.2,0,0
2023,2,11,10,60,9,30.8,17.3,44.0,101325,0,0,0,0,0,0,0,0,0,0,0,19.4,0,0,9999,77777,9,999999999,0,0,0,99,0.2,0,0
2023,2,11,11,60,9,29.9,15.8,42.0,101325,0,0,0,0,0,0,0,0,0,0,0,21.1,0,0,9999,77777,9,999999999,0,0,0,99,0.2,0,0
2023,2,11,12,60,9,28.7,14.6,42.0,101325,0,0,0,0,0,0,0,0,0,0,0,21.3,0,0,9999,77777,9,999999999,0,0,0,99,0.2,0,0
2023,2,11,13,60,9,26.5,16.4,54.0,101325,0,0,0,0,0,0,0,0,0,0,0,20.7,0,0,9999,77777,9,999999999,0,0,0,99,0.2,0,0
2023,2,11,14,60,9,25.1,15.6,55.0,101325,0,0,0,0,0,0,0,0,0,0,0,22.4,0,0,9999,77777,9,999999999,0,0,0,99,0.2,0,0
2023,2,11,15,60,9,24.6,14.2,52.0,101325,0,0,0,0,0,0,0,0,0,0,0,20.5,0,0,9999,77777,9,999999999,0,0,0,99,0.2,0,0
2023,2,11,16,60,9,24.5,12.2,46.0,101325,0,0,0,0,0,0,0,0,0,0,0,18.9,0,0,9999,77777,9,999999999,0,0,0,99,0.2,0,0
2023,2,11,17,60,9,24.2,9.6,40.0,101325,0,0,0,0,0,0,0,0,0,0,0,15.1,0,0,9999,77777,9,999999999,0,0,0,99,0.2,0,0
2023,2,11,18,60,9,23.7,8.9,39.0,101325,0,0,0,0,0,0,0,0,0,0,0,13.8,0,0,9999,77777,9,999999999,0,0,0,99,0.2,0,0
2023,2,11,19,60,9,22.8,8.7,40.0,101325,0,0,0,0,0,0,0,0,0,0,0,9.7,0,0,9999,77777,9,999999999,0,0,0,99,0.2,0,0
2023,2,11,20,60,9,21.3,9.5,47.0,101325,0,0,0,0,0,0,0,0,0,0,0,8.0,0,0,9999,77777,9,999999999,0,0,0,99,0.2,0,0
2023,2,11,21,60,9,21.1,10.4,51.0,101325,0,0,0,0,0,0,0,0,0,0,0,8.6,0,0,9999,77777,9,999999999,0,0,0,99,0.2,0,0
2023,2,11,22,60,9,21.3,11.1,52.0,101325,0,0,0,0,0,0,0,0,0,0,0,9.4,0,0,9999,77777,9,999999999,0,0,0,99,0.2,0,0
2023,2,11,23,60,9,20.7,11.5,56.0,101325,0,0,0,0,0,0,0,0,0,0,0,8.4,0,0,9999,77777,9,999999999,0,0,0,99,0.2,0,0
2023,2,11,24,60,9,19.6,11.7,60.0,101325,0,0,0,0,0,0,0,0,0,0,0,8.2,0,0,9999,77777,9,999999999,0,0,0,99,0.2,0,0
2023,2,12,1,60,9,19.0,12.1,64.0,101325,0,0,0,0,0,0,0,0,0,0,0,9.3,0,0,9999,77777,9,999999999,0,0,0,99,0.2,0,0
2023,2,12,2,60,9,17.7,12.2,70.0,101325,0,0,0,0,0,0,0,0,0,0,0,9.7,0,0,9999,77777,9,999999999,0,0,0,99,0.2,0,0
2023,2,12,3,60,9,17.6,12.8,73.0,101325,0,0,0,0,0,0,0,0,0,0,0,8.8,0,0,9999,77777,9,999999999,0,0,0,99,0.2,0,0
2023,2,12,4,60,9,21.2,12.1,56.0,101325,0,0,0,0,0,0,0,0,0,0,0,8.8,0,0,9999,77777,9,999999999,0,0,0,99,0.2,0,0
2023,2,12,5,60,9,24.4,10.4,41.0,101325,0,0,0,0,0,0,0,0,0,0,0,8.0,0,0,9999,77777,9,999999999,0,0,0,99,0.2,0,0
2023,2,12,6,60,9,27.8,9.7,32.0,101325,0,0,0,0,0,0,0,0,0,0,0,7.3,0,0,9999,77777,9,999999999,0,0,0,99,0.2,0,0
2023,2,12,7,60,9,30.6,9.6,27.0,101325,0,0,0,0,0,0,0,0,0,0,0,7.2,0,0,9999,77777,9,999999999,0,0,0,99,0.2,0,0
2023,2,12,8,60,9,32.2,10.4,26.0,101325,0,0,0,0,0,0,0,0,0,0,0,10.1,0,0,9999,77777,9,999999999,0,0,0,99,0.2,0,0
2023,2,12,9,60,9,32.7,13.2,31.0,101325,0,0,0,0,0,0,0,0,0,0,0,15.5,0,0,9999,77777,9,999999999,0,0,0,99,0.2,0,0
2023,2,12,10,60,9,32.2,16.6,39.0,101325,0,0,0,0,0,0,0,0,0,0,0,18.1,0,0,9999,77777,9,999999999,0,0,0,99,0.2,0,0
2023,2,12,11,60,9,31.0,19.1,49.0,101325,0,0,0,0,0,0,0,0,0,0,0,19.1,0,0,9999,77777,9,999999999,0,0,0,99,0.2,0,0
2023,2,12,12,60,9,29.6,19.0,53.0,101325,0,0,0,0,0,0,0,0,0,0,0,20.6,0,0,9999,77777,9,999999999,0,0,0,99,0.2,0,0
2023,2,12,13,60,9,28.3,18.4,55.0,101325,0,0,0,0,0,0,0,0,0,0,0,20.8,0,0,9999,77777,9,999999999,0,0,0,99,0.2,0,0
2023,2,12,14,60,9,27.1,14.6,46.0,101325,0,0,0,0,0,0,0,0,0,0,0,21.3,0,0,9999,77777,9,999999999,0,0,0,99,0.2,0,0
2023,2,12,15,60,9,26.4,15.5,51.0,101325,0,0,0,0,0,0,0,0,0,0,0,20.1,0,0,9999,77777,9,999999999,0,0,0,99,0.2,0,0
2023,2,12,16,60,9,26.9,14.8,47.0,101325,0,0,0,0,0,0,0,0,0,0,0,16.6,0,0,9999,77777,9,999999999,0,0,0,99,0.2,0,0
2023,2,12,17,60,9,27.7,8.2,29.0,101325,0,0,0,0,0,0,0,0,0,0,0,17.6,0,0,9999,77777,9,999999999,0,0,0,99,0.2,0,0
2023,2,12,18,60,9,27.6,7.0,27.0,101325,0,0,0,0,0,0,0,0,0,0,0,19.1,0,0,9999,77777,9,999999999,0,0,0,99,0.2,0,0
2023,2,12,19,60,9,26.6,7.7,30.0,101325,0,0,0,0,0,0,0,0,0,0,0,18.6,0,0,9999,77777,9,999999999,0,0,0,99,0.2,0,0
2023,2,12,20,60,9,25.6,8.4,33.0,101325,0,0,0,0,0,0,0,0,0,0,0,16.6,0,0,9999,77777,9,999999999,0,0,0,99,0.2,0,0
2023,2,12,21,60,9,24.8,9.0,37.0,101325,0,0,0,0,0,0,0,0,0,0,0,14.3,0,0,9999,77777,9,999999999,0,0,0,99,0.2,0,0
2023,2,12,22,60,9,24.1,9.6,40.0,101325,0,0,0,0,0,0,0,0,0,0,0,13.5,0,0,9999,77777,9,999999999,0,0,0,99,0.2,0,0
2023,2,12,23,60,9,23.6,10.2,43.0,101325,0,0,0,0,0,0,0,0,0,0,0,13.0,0,0,9999,77777,9,999999999,0,0,0,99,0.2,0,0
2023,2,12,24,60,9,23.1,10.7,46.0,101325,0,0,0,0,0,0,0,0,0,0,0,12.2,0,0,9999,77777,9,999999999,0,0,0,99,0.2,0,0
2023,2,13,1,60,9,22.4,10.7,48.0,101325,0,0,0,0,0,0,0,0,0,0,0,11.5,0,0,9999,77777,9,999999999,0,0,0,99,0.2,0,0
2023,2,13,2,60,9,22.1,10.8,49.0,101325,0,0,0,0,0,0,0,0,0,0,0,10.2,0,0,9999,77777,9,999999999,0,0,0,99,0.2,0,0
2023,2,13,3,60,9,21.9,10.7,49.0,101325,0,0,0,0,0,0,0,0,0,0,0,9.9,0,0,9999,77777,9,999999999,0,0,0,99,0.2,0,0
2023,2,13,4,60,9,24.0,10.8,43.0,101325,0,0,0,0,0,0,0,0,0,0,0,12.7,0,0,9999,77777,9,999999999,0,0,0,99,0.2,0,0
2023,2,13,5,60,9,27.2,9.9,34.0,101325,0,0,0,0,0,0,0,0,0,0,0,10.2,0,0,9999,77777,9,999999999,0,0,0,99,0.2,0,0
2023,2,13,6,60,9,30.4,8.0,25.0,101325,0,0,0,0,0,0,0,0,0,0,0,8.1,0,0,9999,77777,9,999999999,0,0,0,99,0.2,0,0
2023,2,13,7,60,9,32.5,7.2,21.0,101325,0,0,0,0,0,0,0,0,0,0,0,6.4,0,0,9999,77777,9,999999999,0,0,0,99,0.2,0,0
2023,2,13,8,60,9,33.7,6.1,18.0,101325,0,0,0,0,0,0,0,0,0,0,0,3.4,0,0,9999,77777,9,999999999,0,0,0,99,0.2,0,0
2023,2,13,9,60,9,33.8,9.2,22.0,101325,0,0,0,0,0,0,0,0,0,0,0,10.3,0,0,9999,77777,9,999999999,0,0,0,99,0.2,0,0
2023,2,13,10,60,9,32.5,14.1,33.0,101325,0,0,0,0,0,0,0,0,0,0,0,15.6,0,0,9999,77777,9,999999999,0,0,0,99,0.2,0,0
2023,2,13,11,60,9,31.0,14.4,36.0,101325,0,0,0,0,0,0,0,0,0,0,0,19.4,0,0,9999,77777,9,999999999,0,0,0,99,0.2,0,0
2023,2,13,12,60,9,29.3,13.2,37.0,101325,0,0,0,0,0,0,0,0,0,0,0,20.6,0,0,9999,77777,9,999999999,0,0,0,99,0.2,0,0
2023,2,13,13,60,9,28.0,15.4,46.0,101325,0,0,0,0,0,0,0,0,0,0,0,19.3,0,0,9999,77777,9,999999999,0,0,0,99,0.2,0,0
2023,2,13,14,60,9,26.8,16.7,54.0,101325,0,0,0,0,0,0,0,0,0,0,0,21.9,0,0,9999,77777,9,999999999,0,0,0,99,0.2,0,0
2023,2,13,15,60,9,26.4,14.5,48.0,101325,0,0,0,0,0,0,0,0,0,0,0,24.0,0,0,9999,77777,9,999999999,0,0,0,99,0.2,0,0
2023,2,13,16,60,9,26.0,13.7,47.0,101325,0,0,0,0,0,0,0,0,0,0,0,22.4,0,0,9999,77777,9,999999999,0,0,0,99,0.2,0,0
2023,2,13,17,60,9,25.5,14.0,49.0,101325,0,0,0,0,0,0,0,0,0,0,0,20.3,0,0,9999,77777,9,999999999,0,0,0,99,0.2,0,0
2023,2,13,18,60,9,25.4,11.6,42.0,101325,0,0,0,0,0,0,0,0,0,0,0,11.7,0,0,9999,77777,9,999999999,0,0,0,99,0.2,0,0
2023,2,13,19,60,9,23.5,10.2,43.0,101325,0,0,0,0,0,0,0,0,0,0,0,8.3,0,0,9999,77777,9,999999999,0,0,0,99,0.2,0,0
2023,2,13,20,60,9,23.2,9.9,43.0,101325,0,0,0,0,0,0,0,0,0,0,0,8.9,0,0,9999,77777,9,999999999,0,0,0,99,0.2,0,0
2023,2,13,21,60,9,22.8,8.8,41.0,101325,0,0,0,0,0,0,0,0,0,0,0,9.2,0,0,9999,77777,9,999999999,0,0,0,99,0.2,0,0
2023,2,13,22,60,9,20.1,8.8,48.0,101325,0,0,0,0,0,0,0,0,0,0,0,10.2,0,0,9999,77777,9,999999999,0,0,0,99,0.2,0,0
2023,2,13,23,60,9,20.7,8.4,45.0,101325,0,0,0,0,0,0,0,0,0,0,0,8.2,0,0,9999,77777,9,999999999,0,0,0,99,0.2,0,0
2023,2,13,24,60,9,20.8,8.4,45.0,101325,0,0,0,0,0,0,0,0,0,0,0,9.4,0,0,9999,77777,9,999999999,0,0,0,99,0.2,0,0
2023,2,14,1,60,9,20.3,9.0,48.0,101325,0,0,0,0,0,0,0,0,0,0,0,9.7,0,0,9999,77777,9,999999999,0,0,0,99,0.2,0,0
2023,2,14,2,60,9,19.8,9.2,50.0,101325,0,0,0,0,0,0,0,0,0,0,0,9.4,0,0,9999,77777,9,999999999,0,0,0,99,0.2,0,0
2023,2,14,3,60,9,20.0,9.5,51.0,101325,0,0,0,0,0,0,0,0,0,0,0,9.7,0,0,9999,77777,9,999999999,0,0,0,99,0.2,0,0
2023,2,14,4,60,9,22.1,10.2,47.0,101325,0,0,0,0,0,0,0,0,0,0,0,11.6,0,0,9999,77777,9,999999999,0,0,0,99,0.2,0,0
2023,2,14,5,60,9,25.4,10.2,38.0,101325,0,0,0,0,0,0,0,0,0,0,0,7.9,0,0,9999,77777,9,999999999,0,0,0,99,0.2,0,0
2023,2,14,6,60,9,29.1,9.6,30.0,101325,0,0,0,0,0,0,0,0,0,0,0,4.6,0,0,9999,77777,9,999999999,0,0,0,99,0.2,0,0
2023,2,14,7,60,9,31.7,8.7,24.0,101325,0,0,0,0,0,0,0,0,0,0,0,1.6,0,0,9999,77777,9,999999999,0,0,0,99,0.2,0,0
2023,2,14,8,60,9,33.0,8.5,22.0,101325,0,0,0,0,0,0,0,0,0,0,0,3.6,0,0,9999,77777,9,999999999,0,0,0,99,0.2,0,0
2023,2,14,9,60,9,32.8,12.0,28.0,101325,0,0,0,0,0,0,0,0,0,0,0,11.2,0,0,9999,77777,9,999999999,0,0,0,99,0.2,0,0
2023,2,14,10,60,9,31.9,13.3,32.0,101325,0,0,0,0,0,0,0,0,0,0,0,14.6,0,0,9999,77777,9,999999999,0,0,0,99,0.2,0,0
2023,2,14,11,60,9,30.5,13.3,35.0,101325,0,0,0,0,0,0,0,0,0,0,0,16.6,0,0,9999,77777,9,999999999,0,0,0,99,0.2,0,0
2023,2,14,12,60,9,29.2,15.0,42.0,101325,0,0,0,0,0,0,0,0,0,0,0,17.3,0,0,9999,77777,9,999999999,0,0,0,99,0.2,0,0
2023,2,14,13,60,9,27.7,16.2,49.0,101325,0,0,0,0,0,0,0,0,0,0,0,17.9,0,0,9999,77777,9,999999999,0,0,0,99,0.2,0,0
2023,2,14,14,60,9,26.0,14.0,48.0,101325,0,0,0,0,0,0,0,0,0,0,0,20.1,0,0,9999,77777,9,999999999,0,0,0,99,0.2,0,0
2023,2,14,15,60,9,24.9,15.3,55.0,101325,0,0,0,0,0,0,0,0,0,0,0,18.7,0,0,9999,77777,9,999999999,0,0,0,99,0.2,0,0
2023,2,14,16,60,9,25.2,13.9,50.0,101325,0,0,0,0,0,0,0,0,0,0,0,17.1,0,0,9999,77777,9,999999999,0,0,0,99,0.2,0,0
2023,2,14,17,60,9,24.9,11.9,44.0,101325,0,0,0,0,0,0,0,0,0,0,0,13.5,0,0,9999,77777,9,999999999,0,0,0,99,0.2,0,0
2023,2,14,18,60,9,22.4,10.5,47.0,101325,0,0,0,0,0,0,0,0,0,0,0,10.8,0,0,9999,77777,9,999999999,0,0,0,99,0.2,0,0
2023,2,14,19,60,9,24.8,8.4,35.0,101325,0,0,0,0,0,0,0,0,0,0,0,6.2,0,0,9999,77777,9,999999999,0,0,0,99,0.2,0,0
2023,2,14,20,60,9,22.0,8.7,43.0,101325,0,0,0,0,0,0,0,0,0,0,0,8.4,0,0,9999,77777,9,999999999,0,0,0,99,0.2,0,0
2023,2,14,21,60,9,21.6,10.3,49.0,101325,0,0,0,0,0,0,0,0,0,0,0,8.5,0,0,9999,77777,9,999999999,0,0,0,99,0.2,0,0
2023,2,14,22,60,9,21.5,10.0,48.0,101325,0,0,0,0,0,0,0,0,0,0,0,8.5,0,0,9999,77777,9,999999999,0,0,0,99,0.2,0,0
2023,2,14,23,60,9,19.0,10.9,59.0,101325,0,0,0,0,0,0,0,0,0,0,0,10.5,0,0,9999,77777,9,999999999,0,0,0,99,0.2,0,0
2023,2,14,24,60,9,18.4,11.2,63.0,101325,0,0,0,0,0,0,0,0,0,0,0,8.8,0,0,9999,77777,9,999999999,0,0,0,99,0.2,0,0
2023,2,15,1,60,9,18.8,11.6,63.0,101325,0,0,0,0,0,0,0,0,0,0,0,7.3,0,0,9999,77777,9,999999999,0,0,0,99,0.2,0,0
2023,2,15,2,60,9,17.8,10.8,64.0,101325,0,0,0,0,0,0,0,0,0,0,0,8.2,0,0,9999,77777,9,999999999,0,0,0,99,0.2,0,0
2023,2,15,3,60,9,18.3,10.5,61.0,101325,0,0,0,0,0,0,0,0,0,0,0,6.9,0,0,9999,77777,9,999999999,0,0,0,99,0.2,0,0
2023,2,15,4,60,9,21.6,9.5,46.0,101325,0,0,0,0,0,0,0,0,0,0,0,9.2,0,0,9999,77777,9,999999999,0,0,0,99,0.2,0,0
2023,2,15,5,60,9,25.4,9.8,37.0,101325,0,0,0,0,0,0,0,0,0,0,0,8.4,0,0,9999,77777,9,999999999,0,0,0,99,0.2,0,0
2023,2,15,6,60,9,29.6,7.6,25.0,101325,0,0,0,0,0,0,0,0,0,0,0,5.6,0,0,9999,77777,9,999999999,0,0,0,99,0.2,0,0
2023,2,15,7,60,9,32.4,6.6,20.0,101325,0,0,0,0,0,0,0,0,0,0,0,1.5,0,0,9999,77777,9,999999999,0,0,0,99,0.2,0,0
2023,2,15,8,60,9,33.1,8.9,22.0,101325,0,0,0,0,0,0,0,0,0,0,0,6.5,0,0,9999,77777,9,999999999,0,0,0,99,0.2,0,0
2023,2,15,9,60,9,32.6,12.2,29.0,101325,0,0,0,0,0,0,0,0,0,0,0,12.3,0,0,9999,77777,9,999999999,0,0,0,99,0.2,0,0
2023,2,15,10,60,9,31.8,12.9,32.0,101325,0,0,0,0,0,0,0,0,0,0,0,14.8,0,0,9999,77777,9,999999999,0,0,0,99,0.2,0,0
2023,2,15,11,60,9,30.6,13.4,35.0,101325,0,0,0,0,0,0,0,0,0,0,0,16.4,0,0,9999,77777,9,999999999,0,0,0,99,0.2,0,0
2023,2,15,12,60,9,29.5,14.9,41.0,101325,0,0,0,0,0,0,0,0,0,0,0,17.1,0,0,9999,77777,9,999999999,0,0,0,99,0.2,0,0
2023,2,15,13,60,9,28.2,16.1,48.0,101325,0,0,0,0,0,0,0,0,0,0,0,15.5,0,0,9999,77777,9,999999999,0,0,0,99,0.2,0,0
2023,2,15,14,60,9,26.7,16.7,54.0,101325,0,0,0,0,0,0,0,0,0,0,0,21.1,0,0,9999,77777,9,999999999,0,0,0,99,0.2,0,0
2023,2,15,15,60,9,26.6,12.1,41.0,101325,0,0,0,0,0,0,0,0,0,0,0,21.5,0,0,9999,77777,9,999999999,0,0,0,99,0.2,0,0
2023,2,15,16,60,9,26.2,13.4,45.0,101325,0,0,0,0,0,0,0,0,0,0,0,19.3,0,0,9999,77777,9,999999999,0,0,0,99,0.2,0,0
2023,2,15,17,60,9,26.0,13.0,44.0,101325,0,0,0,0,0,0,0,0,0,0,0,19.8,0,0,9999,77777,9,999999999,0,0,0,99,0.2,0,0
2023,2,15,18,60,9,23.8,14.2,55.0,101325,0,0,0,0,0,0,0,0,0,0,0,7.0,0,0,9999,77777,9,999999999,0,0,0,99,0.2,0,0
2023,2,15,19,60,9,23.5,12.4,50.0,101325,0,0,0,0,0,0,0,0,0,0,0,8.0,0,0,9999,77777,9,999999999,0,0,0,99,0.2,0,0
2023,2,15,20,60,9,22.4,10.9,48.0,101325,0,0,0,0,0,0,0,0,0,0,0,9.7,0,0,9999,77777,9,999999999,0,0,0,99,0.2,0,0
2023,2,15,21,60,9,21.1,10.7,51.0,101325,0,0,0,0,0,0,0,0,0,0,0,8.9,0,0,9999,77777,9,999999999,0,0,0,99,0.2,0,0
2023,2,15,22,60,9,21.9,9.3,45.0,101325,0,0,0,0,0,0,0,0,0,0,0,9.4,0,0,9999,77777,9,999999999,0,0,0,99,0.2,0,0
2023,2,15,23,60,9,22.2,8.0,40.0,101325,0,0,0,0,0,0,0,0,0,0,0,10.9,0,0,9999,77777,9,999999999,0,0,0,99,0.2,0,0
2023,2,15,24,60,9,22.0,7.2,38.0,101325,0,0,0,0,0,0,0,0,0,0,0,10.9,0,0,9999,77777,9,999999999,0,0,0,99,0.2,0,0
2023,2,16,1,60,9,21.6,8.0,41.0,101325,0,0,0,0,0,0,0,0,0,0,0,9.5,0,0,9999,77777,9,999999999,0,0,0,99,0.2,0,0
2023,2,16,2,60,9,20.6,8.3,45.0,101325,0,0,0,0,0,0,0,0,0,0,0,8.5,0,0,9999,77777,9,999999999,0,0,0,99,0.2,0,0
2023,2,16,3,60,9,20.6,8.8,47.0,101325,0,0,0,0,0,0,0,0,0,0,0,8.5,0,0,9999,77777,9,999999999,0,0,0,99,0.2,0,0
2023,2,16,4,60,9,23.3,8.8,40.0,101325,0,0,0,0,0,0,0,0,0,0,0,12.4,0,0,9999,77777,9,999999999,0,0,0,99,0.2,0,0
2023,2,16,5,60,9,26.8,9.1,33.0,101325,0,0,0,0,0,0,0,0,0,0,0,10.5,0,0,9999,77777,9,999999999,0,0,0,99,0.2,0,0
2023,2,16,6,60,9,30.9,8.6,25.0,101325,0,0,0,0,0,0,0,0,0,0,0,8.8,0,0,9999,77777,9,999999999,0,0,0,99,0.2,0,0
2023,2,16,7,60,9,34.0,7.6,20.0,101325,0,0,0,0,0,0,0,0,0,0,0,5.6,0,0,9999,77777,9,999999999,0,0,0,99,0.2,0,0
2023,2,16,8,60,9,34.9,6.9,18.0,101325,0,0,0,0,0,0,0,0,0,0,0,3.4,0,0,9999,77777,9,999999999,0,0,0,99,0.2,0,0
2023,2,16,9,60,9,33.7,13.1,29.0,101325,0,0,0,0,0,0,0,0,0,0,0,12.7,0,0,9999,77777,9,999999999,0,0,0,99,0.2,0,0
2023,2,16,10,60,9,32.8,15.7,36.0,101325,0,0,0,0,0,0,0,0,0,0,0,15.3,0,0,9999,77777,9,999999999,0,0,0,99,0.2,0,0
2023,2,16,11,60,9,31.6,17.6,43.0,101325,0,0,0,0,0,0,0,0,0,0,0,18.9,0,0,9999,77777,9,999999999,0,0,0,99,0.2,0,0
2023,2,16,12,60,9,30.4,14.7,39.0,101325,0,0,0,0,0,0,0,0,0,0,0,19.1,0,0,9999,77777,9,999999999,0,0,0,99,0.2,0,0
2023,2,16,13,60,9,29.4,13.3,37.0,101325,0,0,0,0,0,0,0,0,0,0,0,21.7,0,0,9999,77777,9,999999999,0,0,0,99,0.2,0,0
2023,2,16,14,60,9,28.5,11.3,34.0,101325,0,0,0,0,0,0,0,0,0,0,0,25.3,0,0,9999,77777,9,999999999,0,0,0,99,0.2,0,0
2023,2,16,15,60,9,27.7,13.5,42.0,101325,0,0,0,0,0,0,0,0,0,0,0,23.1,0,0,9999,77777,9,999999999,0,0,0,99,0.2,0,0
2023,2,16,16,60,9,27.3,13.8,43.0,101325,0,0,0,0,0,0,0,0,0,0,0,19.3,0,0,9999,77777,9,999999999,0,0,0,99,0.2,0,0
2023,2,16,17,60,9,28.0,10.0,32.0,101325,0,0,0,0,0,0,0,0,0,0,0,15.5,0,0,9999,77777,9,999999999,0,0,0,99,0.2,0,0
2023,2,16,18,60,9,27.4,9.2,32.0,101325,0,0,0,0,0,0,0,0,0,0,0,14.2,0,0,9999,77777,9,999999999,0,0,0,99,0.2,0,0
2023,2,16,19,60,9,26.3,9.3,34.0,101325,0,0,0,0,0,0,0,0,0,0,0,12.9,0,0,9999,77777,9,999999999,0,0,0,99,0.2,0,0
2023,2,16,20,60,9,25.7,8.7,34.0,101325,0,0,0,0,0,0,0,0,0,0,0,13.6,0,0,9999,77777,9,999999999,0,0,0,99,0.2,0,0
2023,2,16,21,60,9,25.1,7.6,33.0,101325,0,0,0,0,0,0,0,0,0,0,0,13.5,0,0,9999,77777,9,999999999,0,0,0,99,0.2,0,0
2023,2,16,22,60,9,24.2,6.8,33.0,101325,0,0,0,0,0,0,0,0,0,0,0,12.7,0,0,9999,77777,9,999999999,0,0,0,99,0.2,0,0
2023,2,16,23,60,9,23.6,6.5,33.0,101325,0,0,0,0,0,0,0,0,0,0,0,13.0,0,0,9999,77777,9,999999999,0,0,0,99,0.2,0,0
2023,2,16,24,60,9,23.1,6.7,35.0,101325,0,0,0,0,0,0,0,0,0,0,0,12.8,0,0,9999,77777,9,999999999,0,0,0,99,0.2,0,0
2023,2,17,1,60,9,22.3,7.6,39.0,101325,0,0,0,0,0,0,0,0,0,0,0,11.0,0,0,9999,77777,9,999999999,0,0,0,99,0.2,0,0
2023,2,17,2,60,9,21.8,7.9,41.0,101325,0,0,0,0,0,0,0,0,0,0,0,11.0,0,0,9999,77777,9,999999999,0,0,0,99,0.2,0,0
2023,2,17,3,60,9,21.6,8.4,43.0,101325,0,0,0,0,0,0,0,0,0,0,0,11.3,0,0,9999,77777,9,999999999,0,0,0,99,0.2,0,0
2023,2,17,4,60,9,23.9,8.7,38.0,101325,0,0,0,0,0,0,0,0,0,0,0,13.6,0,0,9999,77777,9,999999999,0,0,0,99,0.2,0,0
2023,2,17,5,60,9,27.3,9.4,32.0,101325,0,0,0,0,0,0,0,0,0,0,0,9.5,0,0,9999,77777,9,999999999,0,0,0,99,0.2,0,0
2023,2,17,6,60,9,31.2,9.4,26.0,101325,0,0,0,0,0,0,0,0,0,0,0,6.1,0,0,9999,77777,9,999999999,0,0,0,99,0.2,0,0
2023,2,17,7,60,9,33.7,8.7,21.0,101325,0,0,0,0,0,0,0,0,0,0,0,4.3,0,0,9999,77777,9,999999999,0,0,0,99,0.2,0,0
2023,2,17,8,60,9,34.2,10.4,23.0,101325,0,0,0,0,0,0,0,0,0,0,0,7.2,0,0,9999,77777,9,999999999,0,0,0,99,0.2,0,0
2023,2,17,9,60,9,33.3,15.4,34.0,101325,0,0,0,0,0,0,0,0,0,0,0,14.1,0,0,9999,77777,9,999999999,0,0,0,99,0.2,0,0
2023,2,17,10,60,9,32.8,16.7,38.0,101325,0,0,0,0,0,0,0,0,0,0,0,18.2,0,0,9999,77777,9,999999999,0,0,0,99,0.2,0,0
2023,2,17,11,60,9,31.3,16.9,42.0,101325,0,0,0,0,0,0,0,0,0,0,0,20.8,0,0,9999,77777,9,999999999,0,0,0,99,0.2,0,0
2023,2,17,12,60,9,30.4,16.3,43.0,101325,0,0,0,0,0,0,0,0,0,0,0,19.4,0,0,9999,77777,9,999999999,0,0,0,99,0.2,0,0
2023,2,17,13,60,9,29.3,14.0,39.0,101325,0,0,0,0,0,0,0,0,0,0,0,20.9,0,0,9999,77777,9,999999999,0,0,0,99,0.2,0,0
2023,2,17,14,60,9,28.4,15.4,45.0,101325,0,0,0,0,0,0,0,0,0,0,0,23.4,0,0,9999,77777,9,999999999,0,0,0,99,0.2,0,0
2023,2,17,15,60,9,27.3,15.4,48.0,101325,0,0,0,0,0,0,0,0,0,0,0,22.4,0,0,9999,77777,9,999999999,0,0,0,99,0.2,0,0
2023,2,17,16,60,9,26.8,15.1,49.0,101325,0,0,0,0,0,0,0,0,0,0,0,20.9,0,0,9999,77777,9,999999999,0,0,0,99,0.2,0,0
2023,2,17,17,60,9,26.6,13.9,46.0,101325,0,0,0,0,0,0,0,0,0,0,0,17.3,0,0,9999,77777,9,999999999,0,0,0,99,0.2,0,0
2023,2,17,18,60,9,26.5,11.3,39.0,101325,0,0,0,0,0,0,0,0,0,0,0,14.4,0,0,9999,77777,9,999999999,0,0,0,99,0.2,0,0
2023,2,17,19,60,9,26.4,9.5,34.0,101325,0,0,0,0,0,0,0,0,0,0,0,13.3,0,0,9999,77777,9,999999999,0,0,0,99,0.2,0,0
2023,2,17,20,60,9,25.6,8.5,34.0,101325,0,0,0,0,0,0,0,0,0,0,0,12.1,0,0,9999,77777,9,999999999,0,0,0,99,0.2,0,0
2023,2,17,21,60,9,24.8,7.0,32.0,101325,0,0,0,0,0,0,0,0,0,0,0,12.5,0,0,9999,77777,9,999999999,0,0,0,99,0.2,0,0
2023,2,17,22,60,9,24.4,5.7,30.0,101325,0,0,0,0,0,0,0,0,0,0,0,12.7,0,0,9999,77777,9,999999999,0,0,0,99,0.2,0,0
2023,2,17,23,60,9,24.0,5.7,31.0,101325,0,0,0,0,0,0,0,0,0,0,0,12.2,0,0,9999,77777,9,999999999,0,0,0,99,0.2,0,0
2023,2,17,24,60,9,23.4,6.4,34.0,101325,0,0,0,0,0,0,0,0,0,0,0,11.7,0,0,9999,77777,9,999999999,0,0,0,99,0.2,0,0
2023,2,18,1,60,9,21.5,6.9,39.0,101325,0,0,0,0,0,0,0,0,0,0,0,8.4,0,0,9999,77777,9,999999999,0,0,0,99,0.2,0,0
2023,2,18,2,60,9,19.3,8.0,48.0,101325,0,0,0,0,0,0,0,0,0,0,0,10.1,0,0,9999,77777,9,999999999,0,0,0,99,0.2,0,0
2023,2,18,3,60,9,19.2,9.7,54.0,101325,0,0,0,0,0,0,0,0,0,0,0,9.7,0,0,9999,77777,9,999999999,0,0,0,99,0.2,0,0
2023,2,18,4,60,9,23.2,8.5,39.0,101325,0,0,0,0,0,0,0,0,0,0,0,9.6,0,0,9999,77777,9,999999999,0,0,0,99,0.2,0,0
2023,2,18,5,60,9,26.8,8.6,32.0,101325,0,0,0,0,0,0,0,0,0,0,0,9.2,0,0,9999,77777,9,999999999,0,0,0,99,0.2,0,0
2023,2,18,6,60,9,30.9,7.9,24.0,101325,0,0,0,0,0,0,0,0,0,0,0,8.9,0,0,9999,77777,9,999999999,0,0,0,99,0.2,0,0
2023,2,18,7,60,9,33.7,6.1,18.0,101325,0,0,0,0,0,0,0,0,0,0,0,5.9,0,0,9999,77777,9,999999999,0,0,0,99,0.2,0,0
2023,2,18,8,60,9,34.9,4.4,15.0,101325,0,0,0,0,0,0,0,0,0,0,0,1.1,0,0,9999,77777,9,999999999,0,0,0,99,0.2,0,0
2023,2,18,9,60,9,34.9,7.7,19.0,101325,0,0,0,0,0,0,0,0,0,0,0,8.4,0,0,9999,77777,9,999999999,0,0,0,99,0.2,0,0
2023,2,18,10,60,9,34.0,11.9,26.0,101325,0,0,0,0,0,0,0,0,0,0,0,14.4,0,0,9999,77777,9,999999999,0,0,0,99,0.2,0,0
2023,2,18,11,60,9,32.1,14.9,35.0,101325,0,0,0,0,0,0,0,0,0,0,0,19.4,0,0,9999,77777,9,999999999,0,0,0,99,0.2,0,0
2023,2,18,12,60,9,30.6,13.8,36.0,101325,0,0,0,0,0,0,0,0,0,0,0,19.2,0,0,9999,77777,9,999999999,0,0,0,99,0.2,0,0
2023,2,18,13,60,9,29.1,15.8,45.0,101325,0,0,0,0,0,0,0,0,0,0,0,19.3,0,0,9999,77777,9,999999999,0,0,0,99,0.2,0,0
2023,2,18,14,60,9,27.4,15.9,49.0,101325,0,0,0,0,0,0,0,0,0,0,0,22.2,0,0,9999,77777,9,999999999,0,0,0,99,0.2,0,0
2023,2,18,15,60,9,26.6,13.0,43.0,101325,0,0,0,0,0,0,0,0,0,0,0,21.7,0,0,9999,77777,9,999999999,0,0,0,99,0.2,0,0
2023,2,18,16,60,9,26.3,13.7,46.0,101325,0,0,0,0,0,0,0,0,0,0,0,20.2,0,0,9999,77777,9,999999999,0,0,0,99,0.2,0,0
2023,2,18,17,60,9,26.2,13.3,45.0,101325,0,0,0,0,0,0,0,0,0,0,0,18.9,0,0,9999,77777,9,999999999,0,0,0,99,0.2,0,0
2023,2,18,18,60,9,24.9,13.7,50.0,101325,0,0,0,0,0,0,0,0,0,0,0,8.1,0,0,9999,77777,9,999999999,0,0,0,99,0.2,0,0
2023,2,18,19,60,9,23.4,12.9,52.0,101325,0,0,0,0,0,0,0,0,0,0,0,9.4,0,0,9999,77777,9,999999999,0,0,0,99,0.2,0,0
2023,2,18,20,60,9,24.8,11.3,43.0,101325,0,0,0,0,0,0,0,0,0,0,0,6.8,0,0,9999,77777,9,999999999,0,0,0,99,0.2,0,0
2023,2,18,21,60,9,22.2,11.8,52.0,101325,0,0,0,0,0,0,0,0,0,0,0,9.4,0,0,9999,77777,9,999999999,0,0,0,99,0.2,0,0
2023,2,18,22,60,9,20.0,11.9,60.0,101325,0,0,0,0,0,0,0,0,0,0,0,10.3,0,0,9999,77777,9,999999999,0,0,0,99,0.2,0,0
2023,2,18,23,60,9,20.6,9.9,50.0,101325,0,0,0,0,0,0,0,0,0,0,0,8.1,0,0,9999,77777,9,999999999,0,0,0,99,0.2,0,0
2023,2,18,24,60,9,20.1,8.9,48.0,101325,0,0,0,0,0,0,0,0,0,0,0,8.1,0,0,9999,77777,9,999999999,0,0,0,99,0.2,0,0
2023,2,19,1,60,9,20.3,9.2,49.0,101325,0,0,0,0,0,0,0,0,0,0,0,7.4,0,0,9999,77777,9,999999999,0,0,0,99,0.2,0,0
2023,2,19,2,60,9,18.6,8.5,52.0,101325,0,0,0,0,0,0,0,0,0,0,0,10.2,0,0,9999,77777,9,999999999,0,0,0,99,0.2,0,0
2023,2,19,3,60,9,19.4,8.6,50.0,101325,0,0,0,0,0,0,0,0,0,0,0,7.7,0,0,9999,77777,9,999999999,0,0,0,99,0.2,0,0
2023,2,19,4,60,9,23.0,9.0,41.0,101325,0,0,0,0,0,0,0,0,0,0,0,9.5,0,0,9999,77777,9,999999999,0,0,0,99,0.2,0,0
2023,2,19,5,60,9,26.4,9.2,34.0,101325,0,0,0,0,0,0,0,0,0,0,0,8.7,0,0,9999,77777,9,999999999,0,0,0,99,0.2,0,0
2023,2,19,6,60,9,29.8,8.9,27.0,101325,0,0,0,0,0,0,0,0,0,0,0,6.3,0,0,9999,77777,9,999999999,0,0,0,99,0.2,0,0
2023,2,19,7,60,9,32.8,8.4,22.0,101325,0,0,0,0,0,0,0,0,0,0,0,4.0,0,0,9999,77777,9,999999999,0,0,0,99,0.2,0,0
2023,2,19,8,60,9,35.1,7.1,18.0,101325,0,0,0,0,0,0,0,0,0,0,0,3.1,0,0,9999,77777,9,999999999,0,0,0,99,0.2,0,0
2023,2,19,9,60,9,35.6,6.9,17.0,101325,0,0,0,0,0,0,0,0,0,0,0,7.2,0,0,9999,77777,9,999999999,0,0,0,99,0.2,0,0
2023,2,19,10,60,9,33.5,14.3,31.0,101325,0,0,0,0,0,0,0,0,0,0,0,16.0,0,0,9999,77777,9,999999999,0,0,0,99,0.2,0,0
2023,2,19,11,60,9,32.5,15.0,35.0,101325,0,0,0,0,0,0,0,0,0,0,0,17.8,0,0,9999,77777,9,999999999,0,0,0,99,0.2,0,0
2023,2,19,12,60,9,31.2,16.3,41.0,101325,0,0,0,0,0,0,0,0,0,0,0,15.7,0,0,9999,77777,9,999999999,0,0,0,99,0.2,0,0
2023,2,19,13,60,9,29.1,17.0,48.0,101325,0,0,0,0,0,0,0,0,0,0,0,15.3,0,0,9999,77777,9,999999999,0,0,0,99,0.2,0,0
2023,2,19,14,60,9,27.4,17.3,54.0,101325,0,0,0,0,0,0,0,0,0,0,0,17.4,0,0,9999,77777,9,999999999,0,0,0,99,0.2,0,0
2023,2,19,15,60,9,26.2,16.0,53.0,101325,0,0,0,0,0,0,0,0,0,0,0,19.0,0,0,9999,77777,9,999999999,0,0,0,99,0.2,0,0
2023,2,19,16,60,9,25.8,15.4,53.0,101325,0,0,0,0,0,0,0,0,0,0,0,17.7,0,0,9999,77777,9,999999999,0,0,0,99,0.2,0,0
2023,2,19,17,60,9,24.9,14.0,51.0,101325,0,0,0,0,0,0,0,0,0,0,0,7.6,0,0,9999,77777,9,999999999,0,0,0,99,0.2,0,0
2023,2,19,18,60,9,22.7,13.9,58.0,101325,0,0,0,0,0,0,0,0,0,0,0,8.5,0,0,9999,77777,9,999999999,0,0,0,99,0.2,0,0
2023,2,19,19,60,9,25.8,11.7,41.0,101325,0,0,0,0,0,0,0,0,0,0,0,1.9,0,0,9999,77777,9,999999999,0,0,0,99,0.2,0,0
2023,2,19,20,60,9,25.2,11.4,42.0,101325,0,0,0,0,0,0,0,0,0,0,0,3.3,0,0,9999,77777,9,999999999,0,0,0,99,0.2,0,0
2023,2,19,21,60,9,24.5,11.8,45.0,101325,0,0,0,0,0,0,0,0,0,0,0,3.3,0,0,9999,77777,9,999999999,0,0,0,99,0.2,0,0
2023,2,19,22,60,9,23.7,13.6,53.0,101325,0,0,0,0,0,0,0,0,0,0,0,5.1,0,0,9999,77777,9,999999999,0,0,0,99,0.2,0,0
2023,2,19,23,60,9,23.4,14.8,58.0,101325,0,0,0,0,0,0,0,0,0,0,0,5.6,0,0,9999,77777,9,999999999,0,0,0,99,0.2,0,0
2023,2,19,24,60,9,23.3,16.4,65.0,101325,0,0,0,0,0,0,0,0,0,0,0,5.4,0,0,9999,77777,9,999999999,0,0,0,99,0.2,0,0
2023,2,20,1,60,9,23.1,16.9,68.0,101325,0,0,0,0,0,0,0,0,0,0,0,4.0,0,0,9999,77777,9,999999999,0,0,0,99,0.2,0,0
2023,2,20,2,60,9,22.1,17.1,73.0,101325,0,0,0,0,0,0,0,0,0,0,0,1.8,0,0,9999,77777,9,999999999,0,0,0,99,0.2,0,0
2023,2,20,3,60,9,19.1,17.5,90.0,101325,0,0,0,0,0,0,0,0,0,0,0,4.8,0,0,9999,77777,9,999999999,0,0,0,99,0.2,0,0
2023,2,20,4,60,9,22.7,17.5,72.0,101325,0,0,0,0,0,0,0,0,0,0,0,6.0,0,0,9999,77777,9,999999999,0,0,0,99,0.2,0,0
2023,2,20,5,60,9,25.6,16.7,58.0,101325,0,0,0,0,0,0,0,0,0,0,0,5.9,0,0,9999,77777,9,999999999,0,0,0,99,0.2,0,0
2023,2,20,6,60,9,28.0,16.9,51.0,101325,0,0,0,0,0,0,0,0,0,0,0,5.5,0,0,9999,77777,9,999999999,0,0,0,99,0.2,0,0
2023,2,20,7,60,9,29.9,15.7,42.0,101325,0,0,0,0,0,0,0,0,0,0,0,7.1,0,0,9999,77777,9,999999999,0,0,0,99,0.2,0,0
2023,2,20,8,60,9,30.8,16.4,42.0,101325,0,0,0,0,0,0,0,0,0,0,0,9.1,0,0,9999,77777,9,999999999,0,0,0,99,0.2,0,0
2023,2,20,9,60,9,30.9,18.0,46.0,101325,0,0,0,0,0,0,0,0,0,0,0,11.2,0,0,9999,77777,9,999999999,0,0,0,99,0.2,0,0
2023,2,20,10,60,9,30.6,18.6,49.0,101325,0,0,0,0,0,0,0,0,0,0,0,12.7,0,0,9999,77777,9,999999999,0,0,0,99,0.2,0,0
2023,2,20,11,60,9,30.1,18.4,50.0,101325,0,0,0,0,0,0,0,0,0,0,0,15.2,0,0,9999,77777,9,999999999,0,0,0,99,0.2,0,0
2023,2,20,12,60,9,29.1,19.1,55.0,101325,0,0,0,0,0,0,0,0,0,0,0,16.2,0,0,9999,77777,9,999999999,0,0,0,99,0.2,0,0
2023,2,20,13,60,9,27.3,20.2,65.0,101325,0,0,0,0,0,0,0,0,0,0,0,15.3,0,0,9999,77777,9,999999999,0,0,0,99,0.2,0,0
2023,2,20,14,60,9,25.6,22.0,80.0,101325,0,0,0,0,0,0,0,0,0,0,0,15.1,0,0,9999,77777,9,999999999,0,0,0,99,0.2,0,0
2023,2,20,15,60,9,24.8,21.5,82.0,101325,0,0,0,0,0,0,0,0,0,0,0,13.8,0,0,9999,77777,9,999999999,0,0,0,99,0.2,0,0
2023,2,20,16,60,9,24.0,21.7,87.0,101325,0,0,0,0,0,0,0,0,0,0,0,8.1,0,0,9999,77777,9,999999999,0,0,0,99,0.2,0,0
2023,2,20,17,60,9,23.1,20.9,87.0,101325,0,0,0,0,0,0,0,0,0,0,0,6.4,0,0,9999,77777,9,999999999,0,0,0,99,0.2,0,0
2023,2,20,18,60,9,22.5,19.4,83.0,101325,0,0,0,0,0,0,0,0,0,0,0,7.7,0,0,9999,77777,9,999999999,0,0,0,99,0.2,0,0
2023,2,20,19,60,9,24.2,18.7,71.0,101325,0,0,0,0,0,0,0,0,0,0,0,5.6,0,0,9999,77777,9,999999999,0,0,0,99,0.2,0,0
2023,2,20,20,60,9,23.8,18.6,73.0,101325,0,0,0,0,0,0,0,0,0,0,0,3.4,0,0,9999,77777,9,999999999,0,0,0,99,0.2,0,0
2023,2,20,21,60,9,22.5,18.9,80.0,101325,0,0,0,0,0,0,0,0,0,0,0,4.2,0,0,9999,77777,9,999999999,0,0,0,99,0.2,0,0
2023,2,20,22,60,9,21.0,18.9,88.0,101325,0,0,0,0,0,0,0,0,0,0,0,7.6,0,0,9999,77777,9,999999999,0,0,0,99,0.2,0,0
2023,2,20,23,60,9,20.7,18.5,87.0,101325,0,0,0,0,0,0,0,0,0,0,0,7.9,0,0,9999,77777,9,999999999,0,0,0,99,0.2,0,0
2023,2,20,24,60,9,21.9,18.8,83.0,101325,0,0,0,0,0,0,0,0,0,0,0,6.4,0,0,9999,77777,9,999999999,0,0,0,99,0.2,0,0
2023,2,21,1,60,9,20.7,19.2,91.0,101325,0,0,0,0,0,0,0,0,0,0,0,6.3,0,0,9999,77777,9,999999999,0,0,0,99,0.2,0,0
2023,2,21,2,60,9,21.1,18.7,86.0,101325,0,0,0,0,0,0,0,0,0,0,0,6.3,0,0,9999,77777,9,999999999,0,0,0,99,0.2,0,0
2023,2,21,3,60,9,19.1,18.0,93.0,101325,0,0,0,0,0,0,0,0,0,0,0,7.9,0,0,9999,77777,9,999999999,0,0,0,99,0.2,0,0
2023,2,21,4,60,9,22.6,17.4,72.0,101325,0,0,0,0,0,0,0,0,0,0,0,6.6,0,0,9999,77777,9,999999999,0,0,0,99,0.2,0,0
2023,2,21,5,60,9,26.5,15.4,51.0,101325,0,0,0,0,0,0,0,0,0,0,0,4.6,0,0,9999,77777,9,999999999,0,0,0,99,0.2,0,0
2023,2,21,6,60,9,29.9,13.1,36.0,101325,0,0,0,0,0,0,0,0,0,0,0,3.6,0,0,9999,77777,9,999999999,0,0,0,99,0.2,0,0
2023,2,21,7,60,9,32.0,12.2,30.0,101325,0,0,0,0,0,0,0,0,0,0,0,10.4,0,0,9999,77777,9,999999999,0,0,0,99,0.2,0,0
2023,2,21,8,60,9,31.7,15.4,37.0,101325,0,0,0,0,0,0,0,0,0,0,0,16.7,0,0,9999,77777,9,999999999,0,0,0,99,0.2,0,0
2023,2,21,9,60,9,31.4,14.9,37.0,101325,0,0,0,0,0,0,0,0,0,0,0,19.7,0,0,9999,77777,9,999999999,0,0,0,99,0.2,0,0
2023,2,21,10,60,9,30.8,14.1,36.0,101325,0,0,0,0,0,0,0,0,0,0,0,20.9,0,0,9999,77777,9,999999999,0,0,0,99,0.2,0,0
2023,2,21,11,60,9,30.1,16.2,43.0,101325,0,0,0,0,0,0,0,0,0,0,0,20.4,0,0,9999,77777,9,999999999,0,0,0,99,0.2,0,0
2023,2,21,12,60,9,29.2,17.5,49.0,101325,0,0,0,0,0,0,0,0,0,0,0,20.1,0,0,9999,77777,9,999999999,0,0,0,99,0.2,0,0
2023,2,21,13,60,9,27.4,18.7,59.0,101325,0,0,0,0,0,0,0,0,0,0,0,18.6,0,0,9999,77777,9,999999999,0,0,0,99,0.2,0,0
2023,2,21,14,60,9,25.9,18.6,64.0,101325,0,0,0,0,0,0,0,0,0,0,0,19.0,0,0,9999,77777,9,999999999,0,0,0,99,0.2,0,0
2023,2,21,15,60,9,25.2,18.5,66.0,101325,0,0,0,0,0,0,0,0,0,0,0,17.8,0,0,9999,77777,9,999999999,0,0,0,99,0.2,0,0
2023,2,21,16,60,9,24.9,18.4,67.0,101325,0,0,0,0,0,0,0,0,0,0,0,16.0,0,0,9999,77777,9,999999999,0,0,0,99,0.2,0,0
2023,2,21,17,60,9,24.5,18.4,69.0,101325,0,0,0,0,0,0,0,0,0,0,0,15.6,0,0,9999,77777,9,999999999,0,0,0,99,0.2,0,0
2023,2,21,18,60,9,24.1,18.2,70.0,101325,0,0,0,0,0,0,0,0,0,0,0,12.9,0,0,9999,77777,9,999999999,0,0,0,99,0.2,0,0
2023,2,21,19,60,9,23.2,18.2,73.0,101325,0,0,0,0,0,0,0,0,0,0,0,9.0,0,0,9999,77777,9,999999999,0,0,0,99,0.2,0,0
2023,2,21,20,60,9,22.6,18.3,77.0,101325,0,0,0,0,0,0,0,0,0,0,0,8.0,0,0,9999,77777,9,999999999,0,0,0,99,0.2,0,0
2023,2,21,21,60,9,21.5,18.7,84.0,101325,0,0,0,0,0,0,0,0,0,0,0,6.9,0,0,9999,77777,9,999999999,0,0,0,99,0.2,0,0
2023,2,21,22,60,9,21.0,18.2,84.0,101325,0,0,0,0,0,0,0,0,0,0,0,6.9,0,0,9999,77777,9,999999999,0,0,0,99,0.2,0,0
2023,2,21,23,60,9,19.8,17.3,86.0,101325,0,0,0,0,0,0,0,0,0,0,0,8.0,0,0,9999,77777,9,999999999,0,0,0,99,0.2,0,0
2023,2,21,24,60,9,19.4,16.8,85.0,101325,0,0,0,0,0,0,0,0,0,0,0,9.0,0,0,9999,77777,9,999999999,0,0,0,99,0.2,0,0
2023,2,22,1,60,9,20.0,17.4,85.0,101325,0,0,0,0,0,0,0,0,0,0,0,9.1,0,0,9999,77777,9,999999999,0,0,0,99,0.2,0,0
2023,2,22,2,60,9,21.1,17.4,79.0,101325,0,0,0,0,0,0,0,0,0,0,0,6.7,0,0,9999,77777,9,999999999,0,0,0,99,0.2,0,0
2023,2,22,3,60,9,20.1,18.1,88.0,101325,0,0,0,0,0,0,0,0,0,0,0,5.8,0,0,9999,77777,9,999999999,0,0,0,99,0.2,0,0
2023,2,22,4,60,9,22.6,17.7,74.0,101325,0,0,0,0,0,0,0,0,0,0,0,4.7,0,0,9999,77777,9,999999999,0,0,0,99,0.2,0,0
2023,2,22,5,60,9,25.8,15.9,54.0,101325,0,0,0,0,0,0,0,0,0,0,0,5.4,0,0,9999,77777,9,999999999,0,0,0,99,0.2,0,0
2023,2,22,6,60,9,28.4,16.2,48.0,101325,0,0,0,0,0,0,0,0,0,0,0,10.3,0,0,9999,77777,9,999999999,0,0,0,99,0.2,0,0
2023,2,22,7,60,9,29.6,17.6,48.0,101325,0,0,0,0,0,0,0,0,0,0,0,14.3,0,0,9999,77777,9,999999999,0,0,0,99,0.2,0,0
2023,2,22,8,60,9,30.0,19.1,52.0,101325,0,0,0,0,0,0,0,0,0,0,0,17.1,0,0,9999,77777,9,999999999,0,0,0,99,0.2,0,0
2023,2,22,9,60,9,30.0,18.5,50.0,101325,0,0,0,0,0,0,0,0,0,0,0,19.9,0,0,9999,77777,9,999999999,0,0,0,99,0.2,0,0
2023,2,22,10,60,9,29.8,17.0,46.0,101325,0,0,0,0,0,0,0,0,0,0,0,21.7,0,0,9999,77777,9,999999999,0,0,0,99,0.2,0,0
2023,2,22,11,60,9,29.4,16.8,47.0,101325,0,0,0,0,0,0,0,0,0,0,0,22.2,0,0,9999,77777,9,999999999,0,0,0,99,0.2,0,0
2023,2,22,12,60,9,28.6,17.9,52.0,101325,0,0,0,0,0,0,0,0,0,0,0,21.2,0,0,9999,77777,9,999999999,0,0,0,99,0.2,0,0
2023,2,22,13,60,9,27.0,19.5,64.0,101325,0,0,0,0,0,0,0,0,0,0,0,18.9,0,0,9999,77777,9,999999999,0,0,0,99,0.2,0,0
2023,2,22,14,60,9,25.4,20.3,73.0,101325,0,0,0,0,0,0,0,0,0,0,0,19.0,0,0,9999,77777,9,999999999,0,0,0,99,0.2,0,0
2023,2,22,15,60,9,24.7,19.1,71.0,101325,0,0,0,0,0,0,0,0,0,0,0,18.9,0,0,9999,77777,9,999999999,0,0,0,99,0.2,0,0
2023,2,22,16,60,9,24.5,18.5,69.0,101325,0,0,0,0,0,0,0,0,0,0,0,18.7,0,0,9999,77777,9,999999999,0,0,0,99,0.2,0,0
2023,2,22,17,60,9,24.1,18.3,70.0,101325,0,0,0,0,0,0,0,0,0,0,0,16.2,0,0,9999,77777,9,999999999,0,0,0,99,0.2,0,0
2023,2,22,18,60,9,23.5,17.4,69.0,101325,0,0,0,0,0,0,0,0,0,0,0,12.0,0,0,9999,77777,9,999999999,0,0,0,99,0.2,0,0
2023,2,22,19,60,9,21.9,15.4,67.0,101325,0,0,0,0,0,0,0,0,0,0,0,6.9,0,0,9999,77777,9,999999999,0,0,0,99,0.2,0,0
2023,2,22,20,60,9,20.2,15.0,72.0,101325,0,0,0,0,0,0,0,0,0,0,0,9.2,0,0,9999,77777,9,999999999,0,0,0,99,0.2,0,0
2023,2,22,21,60,9,19.9,14.9,73.0,101325,0,0,0,0,0,0,0,0,0,0,0,8.2,0,0,9999,77777,9,999999999,0,0,0,99,0.2,0,0
2023,2,22,22,60,9,20.9,14.5,67.0,101325,0,0,0,0,0,0,0,0,0,0,0,9.1,0,0,9999,77777,9,999999999,0,0,0,99,0.2,0,0
2023,2,22,23,60,9,21.2,15.1,68.0,101325,0,0,0,0,0,0,0,0,0,0,0,11.5,0,0,9999,77777,9,999999999,0,0,0,99,0.2,0,0
2023,2,22,24,60,9,20.9,14.4,66.0,101325,0,0,0,0,0,0,0,0,0,0,0,10.2,0,0,9999,77777,9,999999999,0,0,0,99,0.2,0,0
2023,2,23,1,60,9,21.3,16.1,72.0,101325,0,0,0,0,0,0,0,0,0,0,0,12.2,0,0,9999,77777,9,999999999,0,0,0,99,0.2,0,0
2023,2,23,2,60,9,20.4,14.4,68.0,101325,0,0,0,0,0,0,0,0,0,0,0,9.4,0,0,9999,77777,9,999999999,0,0,0,99,0.2,0,0
2023,2,23,3,60,9,20.0,13.8,67.0,101325,0,0,0,0,0,0,0,0,0,0,0,7.3,0,0,9999,77777,9,999999999,0,0,0,99,0.2,0,0
2023,2,23,4,60,9,22.6,12.9,54.0,101325,0,0,0,0,0,0,0,0,0,0,0,8.6,0,0,9999,77777,9,999999999,0,0,0,99,0.2,0,0
2023,2,23,5,60,9,25.8,10.7,39.0,101325,0,0,0,0,0,0,0,0,0,0,0,7.1,0,0,9999,77777,9,999999999,0,0,0,99,0.2,0,0
2023,2,23,6,60,9,29.4,8.9,28.0,101325,0,0,0,0,0,0,0,0,0,0,0,7.6,0,0,9999,77777,9,999999999,0,0,0,99,0.2,0,0
2023,2,23,7,60,9,32.1,9.2,24.0,101325,0,0,0,0,0,0,0,0,0,0,0,9.5,0,0,9999,77777,9,999999999,0,0,0,99,0.2,0,0
2023,2,23,8,60,9,32.9,12.9,30.0,101325,0,0,0,0,0,0,0,0,0,0,0,13.2,0,0,9999,77777,9,999999999,0,0,0,99,0.2,0,0
2023,2,23,9,60,9,32.3,16.0,38.0,101325,0,0,0,0,0,0,0,0,0,0,0,17.9,0,0,9999,77777,9,999999999,0,0,0,99,0.2,0,0
2023,2,23,10,60,9,31.6,15.4,38.0,101325,0,0,0,0,0,0,0,0,0,0,0,20.9,0,0,9999,77777,9,999999999,0,0,0,99,0.2,0,0
2023,2,23,11,60,9,31.0,15.3,39.0,101325,0,0,0,0,0,0,0,0,0,0,0,19.9,0,0,9999,77777,9,999999999,0,0,0,99,0.2,0,0
2023,2,23,12,60,9,30.2,15.7,42.0,101325,0,0,0,0,0,0,0,0,0,0,0,19.4,0,0,9999,77777,9,999999999,0,0,0,99,0.2,0,0
2023,2,23,13,60,9,28.5,18.2,54.0,101325,0,0,0,0,0,0,0,0,0,0,0,19.2,0,0,9999,77777,9,999999999,0,0,0,99,0.2,0,0
2023,2,23,14,60,9,26.8,17.8,58.0,101325,0,0,0,0,0,0,0,0,0,0,0,22.6,0,0,9999,77777,9,999999999,0,0,0,99,0.2,0,0
2023,2,23,15,60,9,26.2,17.0,57.0,101325,0,0,0,0,0,0,0,0,0,0,0,21.4,0,0,9999,77777,9,999999999,0,0,0,99,0.2,0,0
2023,2,23,16,60,9,25.9,15.9,54.0,101325,0,0,0,0,0,0,0,0,0,0,0,18.7,0,0,9999,77777,9,999999999,0,0,0,99,0.2,0,0
2023,2,23,17,60,9,25.8,13.4,46.0,101325,0,0,0,0,0,0,0,0,0,0,0,15.5,0,0,9999,77777,9,999999999,0,0,0,99,0.2,0,0
2023,2,23,18,60,9,25.0,10.4,40.0,101325,0,0,0,0,0,0,0,0,0,0,0,11.7,0,0,9999,77777,9,999999999,0,0,0,99,0.2,0,0
2023,2,23,19,60,9,24.1,8.3,37.0,101325,0,0,0,0,0,0,0,0,0,0,0,9.0,0,0,9999,77777,9,999999999,0,0,0,99,0.2,0,0
2023,2,23,20,60,9,22.1,8.8,42.0,101325,0,0,0,0,0,0,0,0,0,0,0,10.6,0,0,9999,77777,9,999999999,0,0,0,99,0.2,0,0
2023,2,23,21,60,9,22.5,9.5,43.0,101325,0,0,0,0,0,0,0,0,0,0,0,8.8,0,0,9999,77777,9,999999999,0,0,0,99,0.2,0,0
2023,2,23,22,60,9,23.1,10.8,46.0,101325,0,0,0,0,0,0,0,0,0,0,0,10.4,0,0,9999,77777,9,999999999,0,0,0,99,0.2,0,0
2023,2,23,23,60,9,22.5,11.8,51.0,101325,0,0,0,0,0,0,0,0,0,0,0,9.8,0,0,9999,77777,9,999999999,0,0,0,99,0.2,0,0
2023,2,23,24,60,9,22.1,12.6,55.0,101325,0,0,0,0,0,0,0,0,0,0,0,10.1,0,0,9999,77777,9,999999999,0,0,0,99,0.2,0,0
2023,2,24,1,60,9,22.2,15.3,65.0,101325,0,0,0,0,0,0,0,0,0,0,0,13.2,0,0,9999,77777,9,999999999,0,0,0,99,0.2,0,0
2023,2,24,2,60,9,21.3,15.9,72.0,101325,0,0,0,0,0,0,0,0,0,0,0,10.4,0,0,9999,77777,9,999999999,0,0,0,99,0.2,0,0
2023,2,24,3,60,9,21.2,15.0,68.0,101325,0,0,0,0,0,0,0,0,0,0,0,9.7,0,0,9999,77777,9,999999999,0,0,0,99,0.2,0,0
2023,2,24,4,60,9,23.7,13.3,52.0,101325,0,0,0,0,0,0,0,0,0,0,0,11.3,0,0,9999,77777,9,999999999,0,0,0,99,0.2,0,0
2023,2,24,5,60,9,27.1,11.7,38.0,101325,0,0,0,0,0,0,0,0,0,0,0,7.5,0,0,9999,77777,9,999999999,0,0,0,99,0.2,0,0
2023,2,24,6,60,9,30.7,10.8,29.0,101325,0,0,0,0,0,0,0,0,0,0,0,5.9,0,0,9999,77777,9,999999999,0,0,0,99,0.2,0,0
2023,2,24,7,60,9,33.3,10.0,24.0,101325,0,0,0,0,0,0,0,0,0,0,0,4.7,0,0,9999,77777,9,999999999,0,0,0,99,0.2,0,0
2023,2,24,8,60,9,34.3,11.9,26.0,101325,0,0,0,0,0,0,0,0,0,0,0,7.9,0,0,9999,77777,9,999999999,0,0,0,99,0.2,0,0
2023,2,24,9,60,9,33.8,15.8,34.0,101325,0,0,0,0,0,0,0,0,0,0,0,14.3,0,0,9999,77777,9,999999999,0,0,0,99,0.2,0,0
2023,2,24,10,60,9,33.5,16.0,35.0,101325,0,0,0,0,0,0,0,0,0,0,0,17.5,0,0,9999,77777,9,999999999,0,0,0,99,0.2,0,0
2023,2,24,11,60,9,32.8,15.2,35.0,101325,0,0,0,0,0,0,0,0,0,0,0,19.4,0,0,9999,77777,9,999999999,0,0,0,99,0.2,0,0
2023,2,24,12,60,9,31.4,17.0,42.0,101325,0,0,0,0,0,0,0,0,0,0,0,18.6,0,0,9999,77777,9,999999999,0,0,0,99,0.2,0,0
2023,2,24,13,60,9,29.8,17.3,47.0,101325,0,0,0,0,0,0,0,0,0,0,0,18.6,0,0,9999,77777,9,999999999,0,0,0,99,0.2,0,0
2023,2,24,14,60,9,28.5,15.3,45.0,101325,0,0,0,0,0,0,0,0,0,0,0,23.0,0,0,9999,77777,9,999999999,0,0,0,99,0.2,0,0
2023,2,24,15,60,9,27.7,14.1,43.0,101325,0,0,0,0,0,0,0,0,0,0,0,22.1,0,0,9999,77777,9,999999999,0,0,0,99,0.2,0,0
2023,2,24,16,60,9,27.3,14.0,44.0,101325,0,0,0,0,0,0,0,0,0,0,0,20.7,0,0,9999,77777,9,999999999,0,0,0,99,0.2,0,0
2023,2,24,17,60,9,26.7,13.2,43.0,101325,0,0,0,0,0,0,0,0,0,0,0,15.7,0,0,9999,77777,9,999999999,0,0,0,99,0.2,0,0
2023,2,24,18,60,9,25.8,11.9,42.0,101325,0,0,0,0,0,0,0,0,0,0,0,9.5,0,0,9999,77777,9,999999999,0,0,0,99,0.2,0,0
2023,2,24,19,60,9,24.2,9.7,40.0,101325,0,0,0,0,0,0,0,0,0,0,0,8.2,0,0,9999,77777,9,999999999,0,0,0,99,0.2,0,0
2023,2,24,20,60,9,23.5,8.8,39.0,101325,0,0,0,0,0,0,0,0,0,0,0,8.3,0,0,9999,77777,9,999999999,0,0,0,99,0.2,0,0
2023,2,24,21,60,9,22.8,9.3,42.0,101325,0,0,0,0,0,0,0,0,0,0,0,8.4,0,0,9999,77777,9,999999999,0,0,0,99,0.2,0,0
2023,2,24,22,60,9,23.6,12.0,48.0,101325,0,0,0,0,0,0,0,0,0,0,0,11.5,0,0,9999,77777,9,999999999,0,0,0,99,0.2,0,0
2023,2,24,23,60,9,23.2,12.3,50.0,101325,0,0,0,0,0,0,0,0,0,0,0,12.6,0,0,9999,77777,9,999999999,0,0,0,99,0.2,0,0
2023,2,24,24,60,9,22.9,11.0,47.0,101325,0,0,0,0,0,0,0,0,0,0,0,11.2,0,0,9999,77777,9,999999999,0,0,0,99,0.2,0,0
2023,2,25,1,60,9,23.0,11.8,49.0,101325,0,0,0,0,0,0,0,0,0,0,0,10.9,0,0,9999,77777,9,999999999,0,0,0,99,0.2,0,0
2023,2,25,2,60,9,22.3,11.4,50.0,101325,0,0,0,0,0,0,0,0,0,0,0,8.6,0,0,9999,77777,9,999999999,0,0,0,99,0.2,0,0
2023,2,25,3,60,9,21.7,11.9,54.0,101325,0,0,0,0,0,0,0,0,0,0,0,6.8,0,0,9999,77777,9,999999999,0,0,0,99,0.2,0,0
2023,2,25,4,60,9,24.5,11.4,44.0,101325,0,0,0,0,0,0,0,0,0,0,0,9.6,0,0,9999,77777,9,999999999,0,0,0,99,0.2,0,0
2023,2,25,5,60,9,27.9,10.6,34.0,101325,0,0,0,0,0,0,0,0,0,0,0,9.4,0,0,9999,77777,9,999999999,0,0,0,99,0.2,0,0
2023,2,25,6,60,9,31.1,9.9,27.0,101325,0,0,0,0,0,0,0,0,0,0,0,10.5,0,0,9999,77777,9,999999999,0,0,0,99,0.2,0,0
2023,2,25,7,60,9,33.2,10.7,25.0,101325,0,0,0,0,0,0,0,0,0,0,0,11.3,0,0,9999,77777,9,999999999,0,0,0,99,0.2,0,0
2023,2,25,8,60,9,33.8,14.7,32.0,101325,0,0,0,0,0,0,0,0,0,0,0,13.7,0,0,9999,77777,9,999999999,0,0,0,99,0.2,0,0
2023,2,25,9,60,9,33.7,17.3,38.0,101325,0,0,0,0,0,0,0,0,0,0,0,17.9,0,0,9999,77777,9,999999999,0,0,0,99,0.2,0,0
2023,2,25,10,60,9,33.9,15.6,33.0,101325,0,0,0,0,0,0,0,0,0,0,0,20.6,0,0,9999,77777,9,999999999,0,0,0,99,0.2,0,0
2023,2,25,11,60,9,33.7,12.4,27.0,101325,0,0,0,0,0,0,0,0,0,0,0,22.4,0,0,9999,77777,9,999999999,0,0,0,99,0.2,0,0
2023,2,25,12,60,9,32.7,11.4,27.0,101325,0,0,0,0,0,0,0,0,0,0,0,22.2,0,0,9999,77777,9,999999999,0,0,0,99,0.2,0,0
2023,2,25,13,60,9,30.6,12.6,33.0,101325,0,0,0,0,0,0,0,0,0,0,0,19.8,0,0,9999,77777,9,999999999,0,0,0,99,0.2,0,0
2023,2,25,14,60,9,28.6,14.4,42.0,101325,0,0,0,0,0,0,0,0,0,0,0,22.5,0,0,9999,77777,9,999999999,0,0,0,99,0.2,0,0
2023,2,25,15,60,9,26.7,15.9,52.0,101325,0,0,0,0,0,0,0,0,0,0,0,21.3,0,0,9999,77777,9,999999999,0,0,0,99,0.2,0,0
2023,2,25,16,60,9,26.4,14.4,48.0,101325,0,0,0,0,0,0,0,0,0,0,0,21.4,0,0,9999,77777,9,999999999,0,0,0,99,0.2,0,0
2023,2,25,17,60,9,26.3,12.7,43.0,101325,0,0,0,0,0,0,0,0,0,0,0,19.0,0,0,9999,77777,9,999999999,0,0,0,99,0.2,0,0
2023,2,25,18,60,9,25.5,9.7,37.0,101325,0,0,0,0,0,0,0,0,0,0,0,11.0,0,0,9999,77777,9,999999999,0,0,0,99,0.2,0,0
2023,2,25,19,60,9,23.6,8.0,37.0,101325,0,0,0,0,0,0,0,0,0,0,0,7.7,0,0,9999,77777,9,999999999,0,0,0,99,0.2,0,0
2023,2,25,20,60,9,22.8,8.4,40.0,101325,0,0,0,0,0,0,0,0,0,0,0,8.6,0,0,9999,77777,9,999999999,0,0,0,99,0.2,0,0
2023,2,25,21,60,9,22.0,9.0,43.0,101325,0,0,0,0,0,0,0,0,0,0,0,8.5,0,0,9999,77777,9,999999999,0,0,0,99,0.2,0,0
2023,2,25,22,60,9,20.8,9.5,48.0,101325,0,0,0,0,0,0,0,0,0,0,0,10.9,0,0,9999,77777,9,999999999,0,0,0,99,0.2,0,0
2023,2,25,23,60,9,20.4,9.0,48.0,101325,0,0,0,0,0,0,0,0,0,0,0,10.9,0,0,9999,77777,9,999999999,0,0,0,99,0.2,0,0
2023,2,25,24,60,9,20.8,9.3,48.0,101325,0,0,0,0,0,0,0,0,0,0,0,9.5,0,0,9999,77777,9,999999999,0,0,0,99,0.2,0,0
2023,2,26,1,60,9,22.4,12.7,54.0,101325,0,0,0,0,0,0,0,0,0,0,0,11.6,0,0,9999,77777,9,999999999,0,0,0,99,0.2,0,0
2023,2,26,2,60,9,21.3,11.7,54.0,101325,0,0,0,0,0,0,0,0,0,0,0,9.7,0,0,9999,77777,9,999999999,0,0,0,99,0.2,0,0
2023,2,26,3,60,9,21.2,10.4,50.0,101325,0,0,0,0,0,0,0,0,0,0,0,9.4,0,0,9999,77777,9,999999999,0,0,0,99,0.2,0,0
2023,2,26,4,60,9,23.8,9.3,40.0,101325,0,0,0,0,0,0,0,0,0,0,0,9.8,0,0,9999,77777,9,999999999,0,0,0,99,0.2,0,0
2023,2,26,5,60,9,27.2,8.5,31.0,101325,0,0,0,0,0,0,0,0,0,0,0,5.6,0,0,9999,77777,9,999999999,0,0,0,99,0.2,0,0
2023,2,26,6,60,9,30.7,7.5,24.0,101325,0,0,0,0,0,0,0,0,0,0,0,5.8,0,0,9999,77777,9,999999999,0,0,0,99,0.2,0,0
2023,2,26,7,60,9,33.4,7.1,20.0,101325,0,0,0,0,0,0,0,0,0,0,0,6.5,0,0,9999,77777,9,999999999,0,0,0,99,0.2,0,0
2023,2,26,8,60,9,34.8,7.5,19.0,101325,0,0,0,0,0,0,0,0,0,0,0,9.2,0,0,9999,77777,9,999999999,0,0,0,99,0.2,0,0
2023,2,26,9,60,9,34.2,13.8,29.0,101325,0,0,0,0,0,0,0,0,0,0,0,16.2,0,0,9999,77777,9,999999999,0,0,0,99,0.2,0,0
2023,2,26,10,60,9,33.6,15.1,33.0,101325,0,0,0,0,0,0,0,0,0,0,0,19.4,0,0,9999,77777,9,999999999,0,0,0,99,0.2,0,0
2023,2,26,11,60,9,32.5,16.3,38.0,101325,0,0,0,0,0,0,0,0,0,0,0,21.4,0,0,9999,77777,9,999999999,0,0,0,99,0.2,0,0
2023,2,26,12,60,9,31.1,16.7,42.0,101325,0,0,0,0,0,0,0,0,0,0,0,20.6,0,0,9999,77777,9,999999999,0,0,0,99,0.2,0,0
2023,2,26,13,60,9,29.4,17.8,50.0,101325,0,0,0,0,0,0,0,0,0,0,0,19.2,0,0,9999,77777,9,999999999,0,0,0,99,0.2,0,0
2023,2,26,14,60,9,28.1,16.4,49.0,101325,0,0,0,0,0,0,0,0,0,0,0,21.4,0,0,9999,77777,9,999999999,0,0,0,99,0.2,0,0
2023,2,26,15,60,9,27.3,15.7,49.0,101325,0,0,0,0,0,0,0,0,0,0,0,22.6,0,0,9999,77777,9,999999999,0,0,0,99,0.2,0,0
2023,2,26,16,60,9,26.9,15.4,49.0,101325,0,0,0,0,0,0,0,0,0,0,0,21.7,0,0,9999,77777,9,999999999,0,0,0,99,0.2,0,0
2023,2,26,17,60,9,26.5,14.2,47.0,101325,0,0,0,0,0,0,0,0,0,0,0,18.2,0,0,9999,77777,9,999999999,0,0,0,99,0.2,0,0
2023,2,26,18,60,9,25.3,12.3,44.0,101325,0,0,0,0,0,0,0,0,0,0,0,10.2,0,0,9999,77777,9,999999999,0,0,0,99,0.2,0,0
2023,2,26,19,60,9,24.3,11.2,44.0,101325,0,0,0,0,0,0,0,0,0,0,0,8.6,0,0,9999,77777,9,999999999,0,0,0,99,0.2,0,0
2023,2,26,20,60,9,24.0,11.5,45.0,101325,0,0,0,0,0,0,0,0,0,0,0,9.1,0,0,9999,77777,9,999999999,0,0,0,99,0.2,0,0
2023,2,26,21,60,9,23.7,11.5,46.0,101325,0,0,0,0,0,0,0,0,0,0,0,9.8,0,0,9999,77777,9,999999999,0,0,0,99,0.2,0,0
2023,2,26,22,60,9,23.5,10.7,45.0,101325,0,0,0,0,0,0,0,0,0,0,0,9.7,0,0,9999,77777,9,999999999,0,0,0,99,0.2,0,0
2023,2,26,23,60,9,23.5,9.6,41.0,101325,0,0,0,0,0,0,0,0,0,0,0,10.0,0,0,9999,77777,9,999999999,0,0,0,99,0.2,0,0
2023,2,26,24,60,9,22.6,9.0,42.0,101325,0,0,0,0,0,0,0,0,0,0,0,8.3,0,0,9999,77777,9,999999999,0,0,0,99,0.2,0,0
2023,2,27,1,60,9,23.4,13.8,55.0,101325,0,0,0,0,0,0,0,0,0,0,0,12.8,0,0,9999,77777,9,999999999,0,0,0,99,0.2,0,0
2023,2,27,2,60,9,22.4,13.6,58.0,101325,0,0,0,0,0,0,0,0,0,0,0,10.4,0,0,9999,77777,9,999999999,0,0,0,99,0.2,0,0
2023,2,27,3,60,9,22.1,12.5,55.0,101325,0,0,0,0,0,0,0,0,0,0,0,9.9,0,0,9999,77777,9,999999999,0,0,0,99,0.2,0,0
2023,2,27,4,60,9,24.6,10.5,41.0,101325,0,0,0,0,0,0,0,0,0,0,0,10.8,0,0,9999,77777,9,999999999,0,0,0,99,0.2,0,0
2023,2,27,5,60,9,28.1,8.7,29.0,101325,0,0,0,0,0,0,0,0,0,0,0,6.4,0,0,9999,77777,9,999999999,0,0,0,99,0.2,0,0
2023,2,27,6,60,9,31.7,7.7,22.0,101325,0,0,0,0,0,0,0,0,0,0,0,8.0,0,0,9999,77777,9,999999999,0,0,0,99,0.2,0,0
2023,2,27,7,60,9,34.2,6.2,18.0,101325,0,0,0,0,0,0,0,0,0,0,0,9.1,0,0,9999,77777,9,999999999,0,0,0,99,0.2,0,0
2023,2,27,8,60,9,34.8,8.3,20.0,101325,0,0,0,0,0,0,0,0,0,0,0,11.7,0,0,9999,77777,9,999999999,0,0,0,99,0.2,0,0
2023,2,27,9,60,9,33.7,14.2,31.0,101325,0,0,0,0,0,0,0,0,0,0,0,18.9,0,0,9999,77777,9,999999999,0,0,0,99,0.2,0,0
2023,2,27,10,60,9,33.0,14.6,33.0,101325,0,0,0,0,0,0,0,0,0,0,0,21.9,0,0,9999,77777,9,999999999,0,0,0,99,0.2,0,0
2023,2,27,11,60,9,32.3,13.8,33.0,101325,0,0,0,0,0,0,0,0,0,0,0,21.9,0,0,9999,77777,9,999999999,0,0,0,99,0.2,0,0
2023,2,27,12,60,9,31.0,15.7,40.0,101325,0,0,0,0,0,0,0,0,0,0,0,20.7,0,0,9999,77777,9,999999999,0,0,0,99,0.2,0,0
2023,2,27,13,60,9,29.2,16.5,46.0,101325,0,0,0,0,0,0,0,0,0,0,0,19.9,0,0,9999,77777,9,999999999,0,0,0,99,0.2,0,0
2023,2,27,14,60,9,27.6,16.1,50.0,101325,0,0,0,0,0,0,0,0,0,0,0,20.7,0,0,9999,77777,9,999999999,0,0,0,99,0.2,0,0
2023,2,27,15,60,9,26.6,15.7,51.0,101325,0,0,0,0,0,0,0,0,0,0,0,19.7,0,0,9999,77777,9,999999999,0,0,0,99,0.2,0,0
2023,2,27,16,60,9,26.3,15.3,51.0,101325,0,0,0,0,0,0,0,0,0,0,0,17.9,0,0,9999,77777,9,999999999,0,0,0,99,0.2,0,0
2023,2,27,17,60,9,25.5,15.3,53.0,101325,0,0,0,0,0,0,0,0,0,0,0,11.9,0,0,9999,77777,9,999999999,0,0,0,99,0.2,0,0
2023,2,27,18,60,9,23.7,14.1,55.0,101325,0,0,0,0,0,0,0,0,0,0,0,6.9,0,0,9999,77777,9,999999999,0,0,0,99,0.2,0,0
2023,2,27,19,60,9,22.1,12.3,54.0,101325,0,0,0,0,0,0,0,0,0,0,0,9.5,0,0,9999,77777,9,999999999,0,0,0,99,0.2,0,0
2023,2,27,20,60,9,22.5,11.0,48.0,101325,0,0,0,0,0,0,0,0,0,0,0,9.0,0,0,9999,77777,9,999999999,0,0,0,99,0.2,0,0
2023,2,27,21,60,9,22.7,11.2,48.0,101325,0,0,0,0,0,0,0,0,0,0,0,7.2,0,0,9999,77777,9,999999999,0,0,0,99,0.2,0,0
2023,2,27,22,60,9,21.0,11.0,53.0,101325,0,0,0,0,0,0,0,0,0,0,0,8.7,0,0,9999,77777,9,999999999,0,0,0,99,0.2,0,0
2023,2,27,23,60,9,21.9,10.8,49.0,101325,0,0,0,0,0,0,0,0,0,0,0,8.9,0,0,9999,77777,9,999999999,0,0,0,99,0.2,0,0
2023,2,27,24,60,9,22.3,12.0,52.0,101325,0,0,0,0,0,0,0,0,0,0,0,10.2,0,0,9999,77777,9,999999999,0,0,0,99,0.2,0,0
2023,2,28,1,60,9,21.9,14.6,63.0,101325,0,0,0,0,0,0,0,0,0,0,0,8.3,0,0,9999,77777,9,999999999,0,0,0,99,0.2,0,0
2023,2,28,2,60,9,19.6,13.9,70.0,101325,0,0,0,0,0,0,0,0,0,0,0,8.3,0,0,9999,77777,9,999999999,0,0,0,99,0.2,0,0
2023,2,28,3,60,9,20.3,13.0,63.0,101325,0,0,0,0,0,0,0,0,0,0,0,6.0,0,0,9999,77777,9,999999999,0,0,0,99,0.2,0,0
2023,2,28,4,60,9,23.2,11.1,47.0,101325,0,0,0,0,0,0,0,0,0,0,0,8.9,0,0,9999,77777,9,999999999,0,0,0,99,0.2,0,0
2023,2,28,5,60,9,26.8,9.7,34.0,101325,0,0,0,0,0,0,0,0,0,0,0,6.4,0,0,9999,77777,9,999999999,0,0,0,99,0.2,0,0
2023,2,28,6,60,9,30.4,8.2,25.0,101325,0,0,0,0,0,0,0,0,0,0,0,4.7,0,0,9999,77777,9,999999999,0,0,0,99,0.2,0,0
2023,2,28,7,60,9,32.6,8.3,22.0,101325,0,0,0,0,0,0,0,0,0,0,0,4.3,0,0,9999,77777,9,999999999,0,0,0,99,0.2,0,0
2023,2,28,8,60,9,33.2,11.0,26.0,101325,0,0,0,0,0,0,0,0,0,0,0,9.8,0,0,9999,77777,9,999999999,0,0,0,99,0.2,0,0
2023,2,28,9,60,9,32.5,14.1,33.0,101325,0,0,0,0,0,0,0,0,0,0,0,15.8,0,0,9999,77777,9,999999999,0,0,0,99,0.2,0,0
2023,2,28,10,60,9,32.3,14.0,33.0,101325,0,0,0,0,0,0,0,0,0,0,0,18.9,0,0,9999,77777,9,999999999,0,0,0,99,0.2,0,0
2023,2,28,11,60,9,31.6,14.6,36.0,101325,0,0,0,0,0,0,0,0,0,0,0,18.2,0,0,9999,77777,9,999999999,0,0,0,99,0.2,0,0
2023,2,28,12,60,9,30.2,17.5,47.0,101325,0,0,0,0,0,0,0,0,0,0,0,16.6,0,0,9999,77777,9,999999999,0,0,0,99,0.2,0,0
2023,2,28,13,60,9,28.1,18.6,56.0,101325,0,0,0,0,0,0,0,0,0,0,0,15.8,0,0,9999,77777,9,999999999,0,0,0,99,0.2,0,0
2023,2,28,14,60,9,26.4,19.5,66.0,101325,0,0,0,0,0,0,0,0,0,0,0,16.4,0,0,9999,77777,9,999999999,0,0,0,99,0.2,0,0
2023,2,28,15,60,9,25.8,17.4,60.0,101325,0,0,0,0,0,0,0,0,0,0,0,17.9,0,0,9999,77777,9,999999999,0,0,0,99,0.2,0,0
2023,2,28,16,60,9,25.3,17.6,62.0,101325,0,0,0,0,0,0,0,0,0,0,0,16.9,0,0,9999,77777,9,999999999,0,0,0,99,0.2,0,0
2023,2,28,17,60,9,24.7,17.7,65.0,101325,0,0,0,0,0,0,0,0,0,0,0,12.8,0,0,9999,77777,9,999999999,0,0,0,99,0.2,0,0
2023,2,28,18,60,9,23.4,18.4,74.0,101325,0,0,0,0,0,0,0,0,0,0,0,6.5,0,0,9999,77777,9,999999999,0,0,0,99,0.2,0,0
2023,2,28,19,60,9,21.8,15.9,69.0,101325,0,0,0,0,0,0,0,0,0,0,0,9.0,0,0,9999,77777,9,999999999,0,0,0,99,0.2,0,0
2023,2,28,20,60,9,22.7,14.6,60.0,101325,0,0,0,0,0,0,0,0,0,0,0,6.9,0,0,9999,77777,9,999999999,0,0,0,99,0.2,0,0
2023,2,28,21,60,9,20.4,14.7,70.0,101325,0,0,0,0,0,0,0,0,0,0,0,9.6,0,0,9999,77777,9,999999999,0,0,0,99,0.2,0,0
2023,2,28,22,60,9,21.6,14.1,63.0,101325,0,0,0,0,0,0,0,0,0,0,0,8.3,0,0,9999,77777,9,999999999,0,0,0,99,0.2,0,0
2023,2,28,23,60,9,22.3,15.2,64.0,101325,0,0,0,0,0,0,0,0,0,0,0,10.6,0,0,9999,77777,9,999999999,0,0,0,99,0.2,0,0
2023,2,28,24,60,9,21.5,14.9,66.0,101325,0,0,0,0,0,0,0,0,0,0,0,7.9,0,0,9999,77777,9,999999999,0,0,0,99,0.2,0,0
2023,3,1,1,60,9,21.9,17.1,74.0,101325,0,0,0,0,0,0,0,0,0,0,0,8.6,0,0,9999,77777,9,999999999,0,0,0,99,0.2,0,0
2023,3,1,2,60,9,20.4,15.9,76.0,101325,0,0,0,0,0,0,0,0,0,0,0,6.9,0,0,9999,77777,9,999999999,0,0,0,99,0.2,0,0
2023,3,1,3,60,9,20.7,15.0,70.0,101325,0,0,0,0,0,0,0,0,0,0,0,6.3,0,0,9999,77777,9,999999999,0,0,0,99,0.2,0,0
2023,3,1,4,60,9,23.3,13.8,55.0,101325,0,0,0,0,0,0,0,0,0,0,0,7.0,0,0,9999,77777,9,999999999,0,0,0,99,0.2,0,0
2023,3,1,5,60,9,27.3,12.2,39.0,101325,0,0,0,0,0,0,0,0,0,0,0,5.6,0,0,9999,77777,9,999999999,0,0,0,99,0.2,0,0
2023,3,1,6,60,9,31.0,10.1,28.0,101325,0,0,0,0,0,0,0,0,0,0,0,7.2,0,0,9999,77777,9,999999999,0,0,0,99,0.2,0,0
2023,3,1,7,60,9,32.7,11.3,27.0,101325,0,0,0,0,0,0,0,0,0,0,0,10.1,0,0,9999,77777,9,999999999,0,0,0,99,0.2,0,0
2023,3,1,8,60,9,32.5,15.3,36.0,101325,0,0,0,0,0,0,0,0,0,0,0,12.9,0,0,9999,77777,9,999999999,0,0,0,99,0.2,0,0
2023,3,1,9,60,9,32.0,17.6,42.0,101325,0,0,0,0,0,0,0,0,0,0,0,15.4,0,0,9999,77777,9,999999999,0,0,0,99,0.2,0,0
2023,3,1,10,60,9,31.7,16.2,39.0,101325,0,0,0,0,0,0,0,0,0,0,0,18.4,0,0,9999,77777,9,999999999,0,0,0,99,0.2,0,0
2023,3,1,11,60,9,31.0,16.4,41.0,101325,0,0,0,0,0,0,0,0,0,0,0,17.2,0,0,9999,77777,9,999999999,0,0,0,99,0.2,0,0
2023,3,1,12,60,9,30.4,17.9,47.0,101325,0,0,0,0,0,0,0,0,0,0,0,17.8,0,0,9999,77777,9,999999999,0,0,0,99,0.2,0,0
2023,3,1,13,60,9,28.6,18.5,54.0,101325,0,0,0,0,0,0,0,0,0,0,0,17.6,0,0,9999,77777,9,999999999,0,0,0,99,0.2,0,0
2023,3,1,14,60,9,26.8,19.6,65.0,101325,0,0,0,0,0,0,0,0,0,0,0,18.5,0,0,9999,77777,9,999999999,0,0,0,99,0.2,0,0
2023,3,1,15,60,9,26.3,18.4,62.0,101325,0,0,0,0,0,0,0,0,0,0,0,16.7,0,0,9999,77777,9,999999999,0,0,0,99,0.2,0,0
2023,3,1,16,60,9,26.2,17.0,57.0,101325,0,0,0,0,0,0,0,0,0,0,0,15.3,0,0,9999,77777,9,999999999,0,0,0,99,0.2,0,0
2023,3,1,17,60,9,26.2,15.4,51.0,101325,0,0,0,0,0,0,0,0,0,0,0,13.0,0,0,9999,77777,9,999999999,0,0,0,99,0.2,0,0
2023,3,1,18,60,9,25.2,13.6,48.0,101325,0,0,0,0,0,0,0,0,0,0,0,9.1,0,0,9999,77777,9,999999999,0,0,0,99,0.2,0,0
2023,3,1,19,60,9,23.7,10.7,44.0,101325,0,0,0,0,0,0,0,0,0,0,0,8.2,0,0,9999,77777,9,999999999,0,0,0,99,0.2,0,0
2023,3,1,20,60,9,22.6,10.6,47.0,101325,0,0,0,0,0,0,0,0,0,0,0,10.5,0,0,9999,77777,9,999999999,0,0,0,99,0.2,0,0
2023,3,1,21,60,9,21.9,10.5,48.0,101325,0,0,0,0,0,0,0,0,0,0,0,11.8,0,0,9999,77777,9,999999999,0,0,0,99,0.2,0,0
2023,3,1,22,60,9,21.4,10.4,49.0,101325,0,0,0,0,0,0,0,0,0,0,0,11.5,0,0,9999,77777,9,999999999,0,0,0,99,0.2,0,0
2023,3,1,23,60,9,23.0,14.0,57.0,101325,0,0,0,0,0,0,0,0,0,0,0,11.0,0,0,9999,77777,9,999999999,0,0,0,99,0.2,0,0
2023,3,1,24,60,9,22.8,15.1,62.0,101325,0,0,0,0,0,0,0,0,0,0,0,10.9,0,0,9999,77777,9,999999999,0,0,0,99,0.2,0,0
2023,3,2,1,60,9,22.9,15.9,64.0,101325,0,0,0,0,0,0,0,0,0,0,0,11.2,0,0,9999,77777,9,999999999,0,0,0,99,0.2,0,0
2023,3,2,2,60,9,22.9,13.8,57.0,101325,0,0,0,0,0,0,0,0,0,0,0,10.5,0,0,9999,77777,9,999999999,0,0,0,99,0.2,0,0
2023,3,2,3,60,9,23.1,13.6,55.0,101325,0,0,0,0,0,0,0,0,0,0,0,10.9,0,0,9999,77777,9,999999999,0,0,0,99,0.2,0,0
2023,3,2,4,60,9,25.5,13.6,48.0,101325,0,0,0,0,0,0,0,0,0,0,0,10.2,0,0,9999,77777,9,999999999,0,0,0,99,0.2,0,0
2023,3,2,5,60,9,28.6,11.6,35.0,101325,0,0,0,0,0,0,0,0,0,0,0,6.5,0,0,9999,77777,9,999999999,0,0,0,99,0.2,0,0
2023,3,2,6,60,9,31.8,10.7,27.0,101325,0,0,0,0,0,0,0,0,0,0,0,5.9,0,0,9999,77777,9,999999999,0,0,0,99,0.2,0,0
2023,3,2,7,60,9,34.2,9.8,23.0,101325,0,0,0,0,0,0,0,0,0,0,0,3.8,0,0,9999,77777,9,999999999,0,0,0,99,0.2,0,0
2023,3,2,8,60,9,35.1,9.6,21.0,101325,0,0,0,0,0,0,0,0,0,0,0,1.5,0,0,9999,77777,9,999999999,0,0,0,99,0.2,0,0
2023,3,2,9,60,9,35.0,13.5,28.0,101325,0,0,0,0,0,0,0,0,0,0,0,11.4,0,0,9999,77777,9,999999999,0,0,0,99,0.2,0,0
2023,3,2,10,60,9,34.3,15.1,32.0,101325,0,0,0,0,0,0,0,0,0,0,0,16.6,0,0,9999,77777,9,999999999,0,0,0,99,0.2,0,0
2023,3,2,11,60,9,33.3,16.0,35.0,101325,0,0,0,0,0,0,0,0,0,0,0,19.4,0,0,9999,77777,9,999999999,0,0,0,99,0.2,0,0
2023,3,2,12,60,9,31.8,18.0,44.0,101325,0,0,0,0,0,0,0,0,0,0,0,19.6,0,0,9999,77777,9,999999999,0,0,0,99,0.2,0,0
2023,3,2,13,60,9,29.6,18.8,52.0,101325,0,0,0,0,0,0,0,0,0,0,0,14.4,0,0,9999,77777,9,999999999,0,0,0,99,0.2,0,0
2023,3,2,14,60,9,28.1,20.3,63.0,101325,0,0,0,0,0,0,0,0,0,0,0,18.4,0,0,9999,77777,9,999999999,0,0,0,99,0.2,0,0
2023,3,2,15,60,9,27.6,17.5,54.0,101325,0,0,0,0,0,0,0,0,0,0,0,16.5,0,0,9999,77777,9,999999999,0,0,0,99,0.2,0,0
2023,3,2,16,60,9,27.2,16.9,53.0,101325,0,0,0,0,0,0,0,0,0,0,0,7.5,0,0,9999,77777,9,999999999,0,0,0,99,0.2,0,0
2023,3,2,17,60,9,25.3,16.7,59.0,101325,0,0,0,0,0,0,0,0,0,0,0,7.7,0,0,9999,77777,9,999999999,0,0,0,99,0.2,0,0
2023,3,2,18,60,9,25.9,15.4,52.0,101325,0,0,0,0,0,0,0,0,0,0,0,7.3,0,0,9999,77777,9,999999999,0,0,0,99,0.2,0,0
2023,3,2,19,60,9,25.3,15.1,53.0,101325,0,0,0,0,0,0,0,0,0,0,0,7.9,0,0,9999,77777,9,999999999,0,0,0,99,0.2,0,0
2023,3,2,20,60,9,26.0,14.6,49.0,101325,0,0,0,0,0,0,0,0,0,0,0,6.6,0,0,9999,77777,9,999999999,0,0,0,99,0.2,0,0
2023,3,2,21,60,9,25.0,15.9,57.0,101325,0,0,0,0,0,0,0,0,0,0,0,6.0,0,0,9999,77777,9,999999999,0,0,0,99,0.2,0,0
2023,3,2,22,60,9,23.2,16.2,65.0,101325,0,0,0,0,0,0,0,0,0,0,0,7.7,0,0,9999,77777,9,999999999,0,0,0,99,0.2,0,0
2023,3,2,23,60,9,23.7,15.9,61.0,101325,0,0,0,0,0,0,0,0,0,0,0,7.3,0,0,9999,77777,9,999999999,0,0,0,99,0.2,0,0
2023,3,2,24,60,9,21.3,14.1,64.0,101325,0,0,0,0,0,0,0,0,0,0,0,9.5,0,0,9999,77777,9,999999999,0,0,0,99,0.2,0,0
2023,3,3,1,60,9,22.3,16.1,68.0,101325,0,0,0,0,0,0,0,0,0,0,0,6.9,0,0,9999,77777,9,999999999,0,0,0,99,0.2,0,0
2023,3,3,2,60,9,21.8,16.0,70.0,101325,0,0,0,0,0,0,0,0,0,0,0,7.0,0,0,9999,77777,9,999999999,0,0,0,99,0.2,0,0
2023,3,3,3,60,9,22.1,16.7,71.0,101325,0,0,0,0,0,0,0,0,0,0,0,6.1,0,0,9999,77777,9,999999999,0,0,0,99,0.2,0,0
2023,3,3,4,60,9,25.8,17.4,60.0,101325,0,0,0,0,0,0,0,0,0,0,0,9.0,0,0,9999,77777,9,999999999,0,0,0,99,0.2,0,0
2023,3,3,5,60,9,29.0,15.0,43.0,101325,0,0,0,0,0,0,0,0,0,0,0,6.3,0,0,9999,77777,9,999999999,0,0,0,99,0.2,0,0
2023,3,3,6,60,9,31.5,13.3,33.0,101325,0,0,0,0,0,0,0,0,0,0,0,4.9,0,0,9999,77777,9,999999999,0,0,0,99,0.2,0,0
2023,3,3,7,60,9,33.0,13.8,31.0,101325,0,0,0,0,0,0,0,0,0,0,0,3.2,0,0,9999,77777,9,999999999,0,0,0,99,0.2,0,0
2023,3,3,8,60,9,33.6,15.3,33.0,101325,0,0,0,0,0,0,0,0,0,0,0,6.6,0,0,9999,77777,9,999999999,0,0,0,99,0.2,0,0
2023,3,3,9,60,9,33.6,16.7,36.0,101325,0,0,0,0,0,0,0,0,0,0,0,8.9,0,0,9999,77777,9,999999999,0,0,0,99,0.2,0,0
2023,3,3,10,60,9,33.7,16.6,36.0,101325,0,0,0,0,0,0,0,0,0,0,0,11.4,0,0,9999,77777,9,999999999,0,0,0,99,0.2,0,0
2023,3,3,11,60,9,32.9,17.2,39.0,101325,0,0,0,0,0,0,0,0,0,0,0,15.5,0,0,9999,77777,9,999999999,0,0,0,99,0.2,0,0
2023,3,3,12,60,9,31.9,18.0,44.0,101325,0,0,0,0,0,0,0,0,0,0,0,16.8,0,0,9999,77777,9,999999999,0,0,0,99,0.2,0,0
2023,3,3,13,60,9,29.3,21.1,61.0,101325,0,0,0,0,0,0,0,0,0,0,0,17.2,0,0,9999,77777,9,999999999,0,0,0,99,0.2,0,0
2023,3,3,14,60,9,27.5,22.0,72.0,101325,0,0,0,0,0,0,0,0,0,0,0,14.8,0,0,9999,77777,9,999999999,0,0,0,99,0.2,0,0
2023,3,3,15,60,9,26.9,19.3,63.0,101325,0,0,0,0,0,0,0,0,0,0,0,14.1,0,0,9999,77777,9,999999999,0,0,0,99,0.2,0,0
2023,3,3,16,60,9,25.6,19.9,71.0,101325,0,0,0,0,0,0,0,0,0,0,0,8.7,0,0,9999,77777,9,999999999,0,0,0,99,0.2,0,0
2023,3,3,17,60,9,26.6,19.9,67.0,101325,0,0,0,0,0,0,0,0,0,0,0,4.6,0,0,9999,77777,9,999999999,0,0,0,99,0.2,0,0
2023,3,3,18,60,9,25.7,19.4,68.0,101325,0,0,0,0,0,0,0,0,0,0,0,4.0,0,0,9999,77777,9,999999999,0,0,0,99,0.2,0,0
2023,3,3,19,60,9,24.5,19.2,72.0,101325,0,0,0,0,0,0,0,0,0,0,0,6.2,0,0,9999,77777,9,999999999,0,0,0,99,0.2,0,0
2023,3,3,20,60,9,25.0,19.6,72.0,101325,0,0,0,0,0,0,0,0,0,0,0,2.3,0,0,9999,77777,9,999999999,0,0,0,99,0.2,0,0
2023,3,3,21,60,9,24.4,20.2,77.0,101325,0,0,0,0,0,0,0,0,0,0,0,2.1,0,0,9999,77777,9,999999999,0,0,0,99,0.2,0,0
2023,3,3,22,60,9,21.9,19.9,88.0,101325,0,0,0,0,0,0,0,0,0,0,0,7.3,0,0,9999,77777,9,999999999,0,0,0,99,0.2,0,0
2023,3,3,23,60,9,22.5,18.3,77.0,101325,0,0,0,0,0,0,0,0,0,0,0,9.1,0,0,9999,77777,9,999999999,0,0,0,99,0.2,0,0
2023,3,3,24,60,9,24.2,17.9,68.0,101325,0,0,0,0,0,0,0,0,0,0,0,4.7,0,0,9999,77777,9,999999999,0,0,0,99,0.2,0,0
2023,3,4,1,60,9,23.1,21.0,88.0,101325,0,0,0,0,0,0,0,0,0,0,0,6.3,0,0,9999,77777,9,999999999,0,0,0,99,0.2,0,0
2023,3,4,2,60,9,22.1,20.4,90.0,101325,0,0,0,0,0,0,0,0,0,0,0,6.3,0,0,9999,77777,9,999999999,0,0,0,99,0.2,0,0
2023,3,4,3,60,9,23.7,20.0,80.0,101325,0,0,0,0,0,0,0,0,0,0,0,9.7,0,0,9999,77777,9,999999999,0,0,0,99,0.2,0,0
2023,3,4,4,60,9,26.7,19.4,64.0,101325,0,0,0,0,0,0,0,0,0,0,0,10.4,0,0,9999,77777,9,999999999,0,0,0,99,0.2,0,0
2023,3,4,5,60,9,29.3,18.3,51.0,101325,0,0,0,0,0,0,0,0,0,0,0,6.9,0,0,9999,77777,9,999999999,0,0,0,99,0.2,0,0
2023,3,4,6,60,9,32.1,15.0,36.0,101325,0,0,0,0,0,0,0,0,0,0,0,4.5,0,0,9999,77777,9,999999999,0,0,0,99,0.2,0,0
2023,3,4,7,60,9,33.8,14.1,31.0,101325,0,0,0,0,0,0,0,0,0,0,0,0.4,0,0,9999,77777,9,999999999,0,0,0,99,0.2,0,0
2023,3,4,8,60,9,34.2,15.6,33.0,101325,0,0,0,0,0,0,0,0,0,0,0,7.3,0,0,9999,77777,9,999999999,0,0,0,99,0.2,0,0
2023,3,4,9,60,9,33.7,17.6,39.0,101325,0,0,0,0,0,0,0,0,0,0,0,10.3,0,0,9999,77777,9,999999999,0,0,0,99,0.2,0,0
2023,3,4,10,60,9,33.7,16.8,37.0,101325,0,0,0,0,0,0,0,0,0,0,0,11.4,0,0,9999,77777,9,999999999,0,0,0,99,0.2,0,0
2023,3,4,11,60,9,33.2,16.9,38.0,101325,0,0,0,0,0,0,0,0,0,0,0,13.7,0,0,9999,77777,9,999999999,0,0,0,99,0.2,0,0
2023,3,4,12,60,9,32.0,18.0,43.0,101325,0,0,0,0,0,0,0,0,0,0,0,15.9,0,0,9999,77777,9,999999999,0,0,0,99,0.2,0,0
2023,3,4,13,60,9,30.4,18.9,50.0,101325,0,0,0,0,0,0,0,0,0,0,0,14.3,0,0,9999,77777,9,999999999,0,0,0,99,0.2,0,0
2023,3,4,14,60,9,28.1,21.9,69.0,101325,0,0,0,0,0,0,0,0,0,0,0,13.4,0,0,9999,77777,9,999999999,0,0,0,99,0.2,0,0
2023,3,4,15,60,9,27.3,21.0,69.0,101325,0,0,0,0,0,0,0,0,0,0,0,13.8,0,0,9999,77777,9,999999999,0,0,0,99,0.2,0,0
2023,3,4,16,60,9,27.1,20.0,65.0,101325,0,0,0,0,0,0,0,0,0,0,0,14.5,0,0,9999,77777,9,999999999,0,0,0,99,0.2,0,0
2023,3,4,17,60,9,26.2,21.2,74.0,101325,0,0,0,0,0,0,0,0,0,0,0,11.2,0,0,9999,77777,9,999999999,0,0,0,99,0.2,0,0
2023,3,4,18,60,9,25.2,20.5,75.0,101325,0,0,0,0,0,0,0,0,0,0,0,5.9,0,0,9999,77777,9,999999999,0,0,0,99,0.2,0,0
2023,3,4,19,60,9,24.8,20.0,74.0,101325,0,0,0,0,0,0,0,0,0,0,0,5.9,0,0,9999,77777,9,999999999,0,0,0,99,0.2,0,0
2023,3,4,20,60,9,24.8,19.9,74.0,101325,0,0,0,0,0,0,0,0,0,0,0,2.5,0,0,9999,77777,9,999999999,0,0,0,99,0.2,0,0
2023,3,4,21,60,9,25.7,20.4,73.0,101325,0,0,0,0,0,0,0,0,0,0,0,1.8,0,0,9999,77777,9,999999999,0,0,0,99,0.2,0,0
2023,3,4,22,60,9,24.0,20.8,82.0,101325,0,0,0,0,0,0,0,0,0,0,0,6.7,0,0,9999,77777,9,999999999,0,0,0,99,0.2,0,0
2023,3,4,23,60,9,24.8,19.7,73.0,101325,0,0,0,0,0,0,0,0,0,0,0,11.3,0,0,9999,77777,9,999999999,0,0,0,99,0.2,0,0
2023,3,4,24,60,9,24.7,19.8,74.0,101325,0,0,0,0,0,0,0,0,0,0,0,12.1,0,0,9999,77777,9,999999999,0,0,0,99,0.2,0,0
2023,3,5,1,60,9,24.0,20.8,82.0,101325,0,0,0,0,0,0,0,0,0,0,0,6.9,0,0,9999,77777,9,999999999,0,0,0,99,0.2,0,0
2023,3,5,2,60,9,22.7,20.5,87.0,101325,0,0,0,0,0,0,0,0,0,0,0,6.6,0,0,9999,77777,9,999999999,0,0,0,99,0.2,0,0
2023,3,5,3,60,9,23.8,19.4,76.0,101325,0,0,0,0,0,0,0,0,0,0,0,5.2,0,0,9999,77777,9,999999999,0,0,0,99,0.2,0,0
2023,3,5,4,60,9,26.1,17.8,60.0,101325,0,0,0,0,0,0,0,0,0,0,0,5.4,0,0,9999,77777,9,999999999,0,0,0,99,0.2,0,0
2023,3,5,5,60,9,29.5,16.0,44.0,101325,0,0,0,0,0,0,0,0,0,0,0,3.9,0,0,9999,77777,9,999999999,0,0,0,99,0.2,0,0
2023,3,5,6,60,9,32.8,13.8,32.0,101325,0,0,0,0,0,0,0,0,0,0,0,7.0,0,0,9999,77777,9,999999999,0,0,0,99,0.2,0,0
2023,3,5,7,60,9,35.4,12.3,25.0,101325,0,0,0,0,0,0,0,0,0,0,0,6.9,0,0,9999,77777,9,999999999,0,0,0,99,0.2,0,0
2023,3,5,8,60,9,36.2,11.0,22.0,101325,0,0,0,0,0,0,0,0,0,0,0,4.8,0,0,9999,77777,9,999999999,0,0,0,99,0.2,0,0
2023,3,5,9,60,9,35.5,16.1,32.0,101325,0,0,0,0,0,0,0,0,0,0,0,12.4,0,0,9999,77777,9,999999999,0,0,0,99,0.2,0,0
2023,3,5,10,60,9,34.9,16.2,33.0,101325,0,0,0,0,0,0,0,0,0,0,0,14.2,0,0,9999,77777,9,999999999,0,0,0,99,0.2,0,0
2023,3,5,11,60,9,34.3,16.3,34.0,101325,0,0,0,0,0,0,0,0,0,0,0,14.5,0,0,9999,77777,9,999999999,0,0,0,99,0.2,0,0
2023,3,5,12,60,9,32.7,18.8,44.0,101325,0,0,0,0,0,0,0,0,0,0,0,18.7,0,0,9999,77777,9,999999999,0,0,0,99,0.2,0,0
2023,3,5,13,60,9,32.1,16.6,39.0,101325,0,0,0,0,0,0,0,0,0,0,0,14.9,0,0,9999,77777,9,999999999,0,0,0,99,0.2,0,0
2023,3,5,14,60,9,29.5,18.2,51.0,101325,0,0,0,0,0,0,0,0,0,0,0,13.9,0,0,9999,77777,9,999999999,0,0,0,99,0.2,0,0
2023,3,5,15,60,9,28.1,19.7,60.0,101325,0,0,0,0,0,0,0,0,0,0,0,13.6,0,0,9999,77777,9,999999999,0,0,0,99,0.2,0,0
2023,3,5,16,60,9,27.6,19.9,63.0,101325,0,0,0,0,0,0,0,0,0,0,0,8.7,0,0,9999,77777,9,999999999,0,0,0,99,0.2,0,0
2023,3,5,17,60,9,27.7,19.9,63.0,101325,0,0,0,0,0,0,0,0,0,0,0,12.9,0,0,9999,77777,9,999999999,0,0,0,99,0.2,0,0
2023,3,5,18,60,9,27.0,20.1,66.0,101325,0,0,0,0,0,0,0,0,0,0,0,15.6,0,0,9999,77777,9,999999999,0,0,0,99,0.2,0,0
2023,3,5,19,60,9,26.7,18.8,62.0,101325,0,0,0,0,0,0,0,0,0,0,0,7.4,0,0,9999,77777,9,999999999,0,0,0,99,0.2,0,0
2023,3,5,20,60,9,25.8,18.9,66.0,101325,0,0,0,0,0,0,0,0,0,0,0,5.9,0,0,9999,77777,9,999999999,0,0,0,99,0.2,0,0
2023,3,5,21,60,9,24.4,19.3,73.0,101325,0,0,0,0,0,0,0,0,0,0,0,6.8,0,0,9999,77777,9,999999999,0,0,0,99,0.2,0,0
2023,3,5,22,60,9,24.5,19.0,72.0,101325,0,0,0,0,0,0,0,0,0,0,0,6.3,0,0,9999,77777,9,999999999,0,0,0,99,0.2,0,0
2023,3,5,23,60,9,24.9,16.7,60.0,101325,0,0,0,0,0,0,0,0,0,0,0,11.7,0,0,9999,77777,9,999999999,0,0,0,99,0.2,0,0
2023,3,5,24,60,9,25.7,14.5,50.0,101325,0,0,0,0,0,0,0,0,0,0,0,15.0,0,0,9999,77777,9,999999999,0,0,0,99,0.2,0,0
2023,3,6,1,60,9,25.5,16.2,56.0,101325,0,0,0,0,0,0,0,0,0,0,0,11.5,0,0,9999,77777,9,999999999,0,0,0,99,0.2,0,0
2023,3,6,2,60,9,25.6,15.0,52.0,101325,0,0,0,0,0,0,0,0,0,0,0,14.5,0,0,9999,77777,9,999999999,0,0,0,99,0.2,0,0
2023,3,6,3,60,9,26.3,14.4,48.0,101325,0,0,0,0,0,0,0,0,0,0,0,17.6,0,0,9999,77777,9,999999999,0,0,0,99,0.2,0,0
2023,3,6,4,60,9,28.7,14.9,43.0,101325,0,0,0,0,0,0,0,0,0,0,0,18.1,0,0,9999,77777,9,999999999,0,0,0,99,0.2,0,0
2023,3,6,5,60,9,31.3,14.2,35.0,101325,0,0,0,0,0,0,0,0,0,0,0,16.5,0,0,9999,77777,9,999999999,0,0,0,99,0.2,0,0
2023,3,6,6,60,9,34.2,12.9,28.0,101325,0,0,0,0,0,0,0,0,0,0,0,15.0,0,0,9999,77777,9,999999999,0,0,0,99,0.2,0,0
2023,3,6,7,60,9,36.0,11.9,23.0,101325,0,0,0,0,0,0,0,0,0,0,0,13.4,0,0,9999,77777,9,999999999,0,0,0,99,0.2,0,0
2023,3,6,8,60,9,35.2,12.2,25.0,101325,0,0,0,0,0,0,0,0,0,0,0,16.9,0,0,9999,77777,9,999999999,0,0,0,99,0.2,0,0
2023,3,6,9,60,9,35.3,11.6,24.0,101325,0,0,0,0,0,0,0,0,0,0,0,20.1,0,0,9999,77777,9,999999999,0,0,0,99,0.2,0,0
2023,3,6,10,60,9,35.9,11.1,22.0,101325,0,0,0,0,0,0,0,0,0,0,0,12.3,0,0,9999,77777,9,999999999,0,0,0,99,0.2,0,0
2023,3,6,11,60,9,36.3,10.3,21.0,101325,0,0,0,0,0,0,0,0,0,0,0,11.3,0,0,9999,77777,9,999999999,0,0,0,99,0.2,0,0
2023,3,6,12,60,9,35.7,9.8,21.0,101325,0,0,0,0,0,0,0,0,0,0,0,6.1,0,0,9999,77777,9,999999999,0,0,0,99,0.2,0,0
2023,3,6,13,60,9,31.8,16.0,39.0,101325,0,0,0,0,0,0,0,0,0,0,0,13.1,0,0,9999,77777,9,999999999,0,0,0,99,0.2,0,0
2023,3,6,14,60,9,30.0,18.1,49.0,101325,0,0,0,0,0,0,0,0,0,0,0,21.2,0,0,9999,77777,9,999999999,0,0,0,99,0.2,0,0
2023,3,6,15,60,9,28.8,18.5,54.0,101325,0,0,0,0,0,0,0,0,0,0,0,18.0,0,0,9999,77777,9,999999999,0,0,0,99,0.2,0,0
2023,3,6,16,60,9,28.5,15.9,47.0,101325,0,0,0,0,0,0,0,0,0,0,0,15.2,0,0,9999,77777,9,999999999,0,0,0,99,0.2,0,0
2023,3,6,17,60,9,28.2,13.8,41.0,101325,0,0,0,0,0,0,0,0,0,0,0,15.2,0,0,9999,77777,9,999999999,0,0,0,99,0.2,0,0
2023,3,6,18,60,9,27.9,13.0,40.0,101325,0,0,0,0,0,0,0,0,0,0,0,17.4,0,0,9999,77777,9,999999999,0,0,0,99,0.2,0,0
2023,3,6,19,60,9,27.3,13.3,42.0,101325,0,0,0,0,0,0,0,0,0,0,0,19.1,0,0,9999,77777,9,999999999,0,0,0,99,0.2,0,0
2023,3,6,20,60,9,27.0,13.1,42.0,101325,0,0,0,0,0,0,0,0,0,0,0,21.7,0,0,9999,77777,9,999999999,0,0,0,99,0.2,0,0
2023,3,6,21,60,9,26.4,13.2,44.0,101325,0,0,0,0,0,0,0,0,0,0,0,23.4,0,0,9999,77777,9,999999999,0,0,0,99,0.2,0,0
2023,3,6,22,60,9,25.6,13.3,46.0,101325,0,0,0,0,0,0,0,0,0,0,0,20.3,0,0,9999,77777,9,999999999,0,0,0,99,0.2,0,0
2023,3,6,23,60,9,25.4,13.5,48.0,101325,0,0,0,0,0,0,0,0,0,0,0,19.0,0,0,9999,77777,9,999999999,0,0,0,99,0.2,0,0
2023,3,6,24,60,9,25.1,13.6,49.0,101325,0,0,0,0,0,0,0,0,0,0,0,21.1,0,0,9999,77777,9,999999999,0,0,0,99,0.2,0,0
2023,3,7,1,60,9,23.9,15.6,60.0,101325,0,0,0,0,0,0,0,0,0,0,0,21.6,0,0,9999,77777,9,999999999,0,0,0,99,0.2,0,0
2023,3,7,2,60,9,24.3,14.8,55.0,101325,0,0,0,0,0,0,0,0,0,0,0,15.0,0,0,9999,77777,9,999999999,0,0,0,99,0.2,0,0
2023,3,7,3,60,9,24.5,14.6,54.0,101325,0,0,0,0,0,0,0,0,0,0,0,12.3,0,0,9999,77777,9,999999999,0,0,0,99,0.2,0,0
2023,3,7,4,60,9,26.5,14.6,48.0,101325,0,0,0,0,0,0,0,0,0,0,0,8.9,0,0,9999,77777,9,999999999,0,0,0,99,0.2,0,0
2023,3,7,5,60,9,28.8,14.6,42.0,101325,0,0,0,0,0,0,0,0,0,0,0,7.6,0,0,9999,77777,9,999999999,0,0,0,99,0.2,0,0
2023,3,7,6,60,9,31.4,15.0,37.0,101325,0,0,0,0,0,0,0,0,0,0,0,12.9,0,0,9999,77777,9,999999999,0,0,0,99,0.2,0,0
2023,3,7,7,60,9,33.5,13.2,29.0,101325,0,0,0,0,0,0,0,0,0,0,0,11.4,0,0,9999,77777,9,999999999,0,0,0,99,0.2,0,0
2023,3,7,8,60,9,35.1,10.4,22.0,101325,0,0,0,0,0,0,0,0,0,0,0,13.7,0,0,9999,77777,9,999999999,0,0,0,99,0.2,0,0
2023,3,7,9,60,9,35.2,9.5,21.0,101325,0,0,0,0,0,0,0,0,0,0,0,13.5,0,0,9999,77777,9,999999999,0,0,0,99,0.2,0,0
2023,3,7,10,60,9,36.0,7.5,17.0,101325,0,0,0,0,0,0,0,0,0,0,0,8.2,0,0,9999,77777,9,999999999,0,0,0,99,0.2,0,0
2023,3,7,11,60,9,36.0,7.1,17.0,101325,0,0,0,0,0,0,0,0,0,0,0,11.3,0,0,9999,77777,9,999999999,0,0,0,99,0.2,0,0
2023,3,7,12,60,9,34.9,7.3,18.0,101325,0,0,0,0,0,0,0,0,0,0,0,6.0,0,0,9999,77777,9,999999999,0,0,0,99,0.2,0,0
2023,3,7,13,60,9,31.9,12.6,31.0,101325,0,0,0,0,0,0,0,0,0,0,0,4.6,0,0,9999,77777,9,999999999,0,0,0,99,0.2,0,0
2023,3,7,14,60,9,29.9,19.9,55.0,101325,0,0,0,0,0,0,0,0,0,0,0,3.0,0,0,9999,77777,9,999999999,0,0,0,99,0.2,0,0
2023,3,7,15,60,9,27.6,20.3,65.0,101325,0,0,0,0,0,0,0,0,0,0,0,2.5,0,0,9999,77777,9,999999999,0,0,0,99,0.2,0,0
2023,3,7,16,60,9,26.4,23.9,86.0,101325,0,0,0,0,0,0,0,0,0,0,0,13.2,0,0,9999,77777,9,999999999,0,0,0,99,0.2,0,0
2023,3,7,17,60,9,25.7,22.1,81.0,101325,0,0,0,0,0,0,0,0,0,0,0,13.7,0,0,9999,77777,9,999999999,0,0,0,99,0.2,0,0
2023,3,7,18,60,9,25.8,19.5,68.0,101325,0,0,0,0,0,0,0,0,0,0,0,11.0,0,0,9999,77777,9,999999999,0,0,0,99,0.2,0,0
2023,3,7,19,60,9,24.7,18.1,67.0,101325,0,0,0,0,0,0,0,0,0,0,0,6.6,0,0,9999,77777,9,999999999,0,0,0,99,0.2,0,0
2023,3,7,20,60,9,24.1,16.4,62.0,101325,0,0,0,0,0,0,0,0,0,0,0,6.8,0,0,9999,77777,9,999999999,0,0,0,99,0.2,0,0
2023,3,7,21,60,9,23.8,15.8,61.0,101325,0,0,0,0,0,0,0,0,0,0,0,7.0,0,0,9999,77777,9,999999999,0,0,0,99,0.2,0,0
2023,3,7,22,60,9,23.8,15.7,61.0,101325,0,0,0,0,0,0,0,0,0,0,0,7.8,0,0,9999,77777,9,999999999,0,0,0,99,0.2,0,0
2023,3,7,23,60,9,23.6,17.5,69.0,101325,0,0,0,0,0,0,0,0,0,0,0,11.6,0,0,9999,77777,9,999999999,0,0,0,99,0.2,0,0
2023,3,7,24,60,9,23.5,16.4,65.0,101325,0,0,0,0,0,0,0,0,0,0,0,10.9,0,0,9999,77777,9,999999999,0,0,0,99,0.2,0,0
2023,3,8,1,60,9,23.3,15.7,62.0,101325,0,0,0,0,0,0,0,0,0,0,0,7.3,0,0,9999,77777,9,999999999,0,0,0,99,0.2,0,0
2023,3,8,2,60,9,23.0,14.7,60.0,101325,0,0,0,0,0,0,0,0,0,0,0,7.9,0,0,9999,77777,9,999999999,0,0,0,99,0.2,0,0
2023,3,8,3,60,9,23.8,14.3,55.0,101325,0,0,0,0,0,0,0,0,0,0,0,10.0,0,0,9999,77777,9,999999999,0,0,0,99,0.2,0,0
2023,3,8,4,60,9,25.7,14.8,51.0,101325,0,0,0,0,0,0,0,0,0,0,0,9.6,0,0,9999,77777,9,999999999,0,0,0,99,0.2,0,0
2023,3,8,5,60,9,28.9,13.7,39.0,101325,0,0,0,0,0,0,0,0,0,0,0,7.0,0,0,9999,77777,9,999999999,0,0,0,99,0.2,0,0
2023,3,8,6,60,9,32.0,12.9,31.0,101325,0,0,0,0,0,0,0,0,0,0,0,7.5,0,0,9999,77777,9,999999999,0,0,0,99,0.2,0,0
2023,3,8,7,60,9,34.4,10.8,24.0,101325,0,0,0,0,0,0,0,0,0,0,0,6.3,0,0,9999,77777,9,999999999,0,0,0,99,0.2,0,0
2023,3,8,8,60,9,35.3,9.4,21.0,101325,0,0,0,0,0,0,0,0,0,0,0,4.1,0,0,9999,77777,9,999999999,0,0,0,99,0.2,0,0
2023,3,8,9,60,9,34.5,14.4,30.0,101325,0,0,0,0,0,0,0,0,0,0,0,14.5,0,0,9999,77777,9,999999999,0,0,0,99,0.2,0,0
2023,3,8,10,60,9,33.3,17.1,38.0,101325,0,0,0,0,0,0,0,0,0,0,0,17.9,0,0,9999,77777,9,999999999,0,0,0,99,0.2,0,0
2023,3,8,11,60,9,32.4,17.8,42.0,101325,0,0,0,0,0,0,0,0,0,0,0,20.5,0,0,9999,77777,9,999999999,0,0,0,99,0.2,0,0
2023,3,8,12,60,9,31.7,17.7,43.0,101325,0,0,0,0,0,0,0,0,0,0,0,19.4,0,0,9999,77777,9,999999999,0,0,0,99,0.2,0,0
2023,3,8,13,60,9,29.5,20.1,57.0,101325,0,0,0,0,0,0,0,0,0,0,0,18.2,0,0,9999,77777,9,999999999,0,0,0,99,0.2,0,0
2023,3,8,14,60,9,28.2,19.7,60.0,101325,0,0,0,0,0,0,0,0,0,0,0,15.9,0,0,9999,77777,9,999999999,0,0,0,99,0.2,0,0
2023,3,8,15,60,9,27.8,19.2,60.0,101325,0,0,0,0,0,0,0,0,0,0,0,16.6,0,0,9999,77777,9,999999999,0,0,0,99,0.2,0,0
2023,3,8,16,60,9,27.8,16.9,51.0,101325,0,0,0,0,0,0,0,0,0,0,0,17.1,0,0,9999,77777,9,999999999,0,0,0,99,0.2,0,0
2023,3,8,17,60,9,27.8,15.2,46.0,101325,0,0,0,0,0,0,0,0,0,0,0,17.3,0,0,9999,77777,9,999999999,0,0,0,99,0.2,0,0
2023,3,8,18,60,9,27.5,14.2,44.0,101325,0,0,0,0,0,0,0,0,0,0,0,16.0,0,0,9999,77777,9,999999999,0,0,0,99,0.2,0,0
2023,3,8,19,60,9,26.8,13.0,42.0,101325,0,0,0,0,0,0,0,0,0,0,0,14.1,0,0,9999,77777,9,999999999,0,0,0,99,0.2,0,0
2023,3,8,20,60,9,26.7,12.0,40.0,101325,0,0,0,0,0,0,0,0,0,0,0,11.8,0,0,9999,77777,9,999999999,0,0,0,99,0.2,0,0
2023,3,8,21,60,9,26.4,11.9,41.0,101325,0,0,0,0,0,0,0,0,0,0,0,10.2,0,0,9999,77777,9,999999999,0,0,0,99,0.2,0,0
2023,3,8,22,60,9,25.7,11.8,42.0,101325,0,0,0,0,0,0,0,0,0,0,0,10.4,0,0,9999,77777,9,999999999,0,0,0,99,0.2,0,0
2023,3,8,23,60,9,25.6,11.1,40.0,101325,0,0,0,0,0,0,0,0,0,0,0,12.4,0,0,9999,77777,9,999999999,0,0,0,99,0.2,0,0
2023,3,8,24,60,9,25.2,10.8,41.0,101325,0,0,0,0,0,0,0,0,0,0,0,10.5,0,0,9999,77777,9,999999999,0,0,0,99,0.2,0,0
2023,3,9,1,60,9,23.5,13.5,53.0,101325,0,0,0,0,0,0,0,0,0,0,0,8.1,0,0,9999,77777,9,999999999,0,0,0,99,0.2,0,0
2023,3,9,2,60,9,23.2,14.3,57.0,101325,0,0,0,0,0,0,0,0,0,0,0,7.4,0,0,9999,77777,9,999999999,0,0,0,99,0.2,0,0
2023,3,9,3,60,9,23.2,15.3,61.0,101325,0,0,0,0,0,0,0,0,0,0,0,5.1,0,0,9999,77777,9,999999999,0,0,0,99,0.2,0,0
2023,3,9,4,60,9,25.8,13.7,47.0,101325,0,0,0,0,0,0,0,0,0,0,0,10.6,0,0,9999,77777,9,999999999,0,0,0,99,0.2,0,0
2023,3,9,5,60,9,29.2,13.0,37.0,101325,0,0,0,0,0,0,0,0,0,0,0,11.7,0,0,9999,77777,9,999999999,0,0,0,99,0.2,0,0
2023,3,9,6,60,9,33.0,11.9,28.0,101325,0,0,0,0,0,0,0,0,0,0,0,10.8,0,0,9999,77777,9,999999999,0,0,0,99,0.2,0,0
2023,3,9,7,60,9,35.7,8.0,18.0,101325,0,0,0,0,0,0,0,0,0,0,0,9.7,0,0,9999,77777,9,999999999,0,0,0,99,0.2,0,0
2023,3,9,8,60,9,36.6,5.2,14.0,101325,0,0,0,0,0,0,0,0,0,0,0,6.1,0,0,9999,77777,9,999999999,0,0,0,99,0.2,0,0
2023,3,9,9,60,9,36.5,5.8,15.0,101325,0,0,0,0,0,0,0,0,0,0,0,7.0,0,0,9999,77777,9,999999999,0,0,0,99,0.2,0,0
2023,3,9,10,60,9,35.1,12.0,25.0,101325,0,0,0,0,0,0,0,0,0,0,0,17.7,0,0,9999,77777,9,999999999,0,0,0,99,0.2,0,0
2023,3,9,11,60,9,34.2,12.4,27.0,101325,0,0,0,0,0,0,0,0,0,0,0,21.2,0,0,9999,77777,9,999999999,0,0,0,99,0.2,0,0
2023,3,9,12,60,9,32.8,13.5,31.0,101325,0,0,0,0,0,0,0,0,0,0,0,22.4,0,0,9999,77777,9,999999999,0,0,0,99,0.2,0,0
2023,3,9,13,60,9,31.7,12.5,31.0,101325,0,0,0,0,0,0,0,0,0,0,0,16.9,0,0,9999,77777,9,999999999,0,0,0,99,0.2,0,0
2023,3,9,14,60,9,30.1,14.2,38.0,101325,0,0,0,0,0,0,0,0,0,0,0,20.3,0,0,9999,77777,9,999999999,0,0,0,99,0.2,0,0
2023,3,9,15,60,9,29.5,11.8,33.0,101325,0,0,0,0,0,0,0,0,0,0,0,20.0,0,0,9999,77777,9,999999999,0,0,0,99,0.2,0,0
2023,3,9,16,60,9,29.2,8.3,27.0,101325,0,0,0,0,0,0,0,0,0,0,0,18.2,0,0,9999,77777,9,999999999,0,0,0,99,0.2,0,0
2023,3,9,17,60,9,28.5,6.5,25.0,101325,0,0,0,0,0,0,0,0,0,0,0,14.8,0,0,9999,77777,9,999999999,0,0,0,99,0.2,0,0
2023,3,9,18,60,9,27.6,5.2,24.0,101325,0,0,0,0,0,0,0,0,0,0,0,12.0,0,0,9999,77777,9,999999999,0,0,0,99,0.2,0,0
2023,3,9,19,60,9,26.8,5.1,25.0,101325,0,0,0,0,0,0,0,0,0,0,0,11.5,0,0,9999,77777,9,999999999,0,0,0,99,0.2,0,0
2023,3,9,20,60,9,26.4,5.8,27.0,101325,0,0,0,0,0,0,0,0,0,0,0,11.8,0,0,9999,77777,9,999999999,0,0,0,99,0.2,0,0
2023,3,9,21,60,9,25.6,6.0,28.0,101325,0,0,0,0,0,0,0,0,0,0,0,9.6,0,0,9999,77777,9,999999999,0,0,0,99,0.2,0,0
2023,3,9,22,60,9,25.3,6.4,30.0,101325,0,0,0,0,0,0,0,0,0,0,0,10.9,0,0,9999,77777,9,999999999,0,0,0,99,0.2,0,0
2023,3,9,23,60,9,25.3,6.3,30.0,101325,0,0,0,0,0,0,0,0,0,0,0,13.0,0,0,9999,77777,9,999999999,0,0,0,99,0.2,0,0
2023,3,9,24,60,9,24.8,6.6,31.0,101325,0,0,0,0,0,0,0,0,0,0,0,11.6,0,0,9999,77777,9,999999999,0,0,0,99,0.2,0,0
2023,3,10,1,60,9,24.5,8.3,36.0,101325,0,0,0,0,0,0,0,0,0,0,0,11.5,0,0,9999,77777,9,999999999,0,0,0,99,0.2,0,0
2023,3,10,2,60,9,24.1,8.3,36.0,101325,0,0,0,0,0,0,0,0,0,0,0,10.3,0,0,9999,77777,9,999999999,0,0,0,99,0.2,0,0
2023,3,10,3,60,9,24.5,8.9,37.0,101325,0,0,0,0,0,0,0,0,0,0,0,10.6,0,0,9999,77777,9,999999999,0,0,0,99,0.2,0,0
2023,3,10,4,60,9,27.2,9.6,33.0,101325,0,0,0,0,0,0,0,0,0,0,0,12.4,0,0,9999,77777,9,999999999,0,0,0,99,0.2,0,0
2023,3,10,5,60,9,30.6,8.8,26.0,101325,0,0,0,0,0,0,0,0,0,0,0,10.7,0,0,9999,77777,9,999999999,0,0,0,99,0.2,0,0
2023,3,10,6,60,9,32.9,8.8,23.0,101325,0,0,0,0,0,0,0,0,0,0,0,9.7,0,0,9999,77777,9,999999999,0,0,0,99,0.2,0,0
2023,3,10,7,60,9,34.5,8.7,21.0,101325,0,0,0,0,0,0,0,0,0,0,0,2.0,0,0,9999,77777,9,999999999,0,0,0,99,0.2,0,0
2023,3,10,8,60,9,35.2,8.2,19.0,101325,0,0,0,0,0,0,0,0,0,0,0,5.9,0,0,9999,77777,9,999999999,0,0,0,99,0.2,0,0
2023,3,10,9,60,9,34.7,12.1,26.0,101325,0,0,0,0,0,0,0,0,0,0,0,17.9,0,0,9999,77777,9,999999999,0,0,0,99,0.2,0,0
2023,3,10,10,60,9,33.5,13.3,30.0,101325,0,0,0,0,0,0,0,0,0,0,0,21.9,0,0,9999,77777,9,999999999,0,0,0,99,0.2,0,0
2023,3,10,11,60,9,33.0,12.4,29.0,101325,0,0,0,0,0,0,0,0,0,0,0,22.2,0,0,9999,77777,9,999999999,0,0,0,99,0.2,0,0
2023,3,10,12,60,9,32.2,14.7,35.0,101325,0,0,0,0,0,0,0,0,0,0,0,23.1,0,0,9999,77777,9,999999999,0,0,0,99,0.2,0,0
2023,3,10,13,60,9,30.7,15.1,39.0,101325,0,0,0,0,0,0,0,0,0,0,0,21.7,0,0,9999,77777,9,999999999,0,0,0,99,0.2,0,0
2023,3,10,14,60,9,29.2,15.1,42.0,101325,0,0,0,0,0,0,0,0,0,0,0,23.3,0,0,9999,77777,9,999999999,0,0,0,99,0.2,0,0
2023,3,10,15,60,9,28.5,13.4,40.0,101325,0,0,0,0,0,0,0,0,0,0,0,22.8,0,0,9999,77777,9,999999999,0,0,0,99,0.2,0,0
2023,3,10,16,60,9,28.2,13.1,39.0,101325,0,0,0,0,0,0,0,0,0,0,0,22.8,0,0,9999,77777,9,999999999,0,0,0,99,0.2,0,0
2023,3,10,17,60,9,27.9,12.5,38.0,101325,0,0,0,0,0,0,0,0,0,0,0,20.4,0,0,9999,77777,9,999999999,0,0,0,99,0.2,0,0
2023,3,10,18,60,9,27.5,10.5,34.0,101325,0,0,0,0,0,0,0,0,0,0,0,17.7,0,0,9999,77777,9,999999999,0,0,0,99,0.2,0,0
2023,3,10,19,60,9,26.8,9.5,34.0,101325,0,0,0,0,0,0,0,0,0,0,0,10.7,0,0,9999,77777,9,999999999,0,0,0,99,0.2,0,0
2023,3,10,20,60,9,26.2,10.4,37.0,101325,0,0,0,0,0,0,0,0,0,0,0,10.5,0,0,9999,77777,9,999999999,0,0,0,99,0.2,0,0
2023,3,10,21,60,9,25.8,10.8,39.0,101325,0,0,0,0,0,0,0,0,0,0,0,10.5,0,0,9999,77777,9,999999999,0,0,0,99,0.2,0,0
2023,3,10,22,60,9,25.3,10.7,40.0,101325,0,0,0,0,0,0,0,0,0,0,0,10.9,0,0,9999,77777,9,999999999,0,0,0,99,0.2,0,0
2023,3,10,23,60,9,24.7,10.5,41.0,101325,0,0,0,0,0,0,0,0,0,0,0,9.0,0,0,9999,77777,9,999999999,0,0,0,99,0.2,0,0
2023,3,10,24,60,9,23.3,10.7,45.0,101325,0,0,0,0,0,0,0,0,0,0,0,7.1,0,0,9999,77777,9,999999999,0,0,0,99,0.2,0,0
2023,3,11,1,60,9,23.5,11.7,47.0,101325,0,0,0,0,0,0,0,0,0,0,0,7.8,0,0,9999,77777,9,999999999,0,0,0,99,0.2,0,0
2023,3,11,2,60,9,22.0,12.0,53.0,101325,0,0,0,0,0,0,0,0,0,0,0,8.7,0,0,9999,77777,9,999999999,0,0,0,99,0.2,0,0
2023,3,11,3,60,9,23.8,12.4,49.0,101325,0,0,0,0,0,0,0,0,0,0,0,7.7,0,0,9999,77777,9,999999999,0,0,0,99,0.2,0,0
2023,3,11,4,60,9,26.9,12.0,40.0,101325,0,0,0,0,0,0,0,0,0,0,0,12.3,0,0,9999,77777,9,999999999,0,0,0,99,0.2,0,0
2023,3,11,5,60,9,30.6,11.5,31.0,101325,0,0,0,0,0,0,0,0,0,0,0,11.0,0,0,9999,77777,9,999999999,0,0,0,99,0.2,0,0
2023,3,11,6,60,9,33.6,10.9,25.0,101325,0,0,0,0,0,0,0,0,0,0,0,7.0,0,0,9999,77777,9,999999999,0,0,0,99,0.2,0,0
2023,3,11,7,60,9,35.5,9.9,21.0,101325,0,0,0,0,0,0,0,0,0,0,0,5.9,0,0,9999,77777,9,999999999,0,0,0,99,0.2,0,0
2023,3,11,8,60,9,36.6,9.3,19.0,101325,0,0,0,0,0,0,0,0,0,0,0,4.0,0,0,9999,77777,9,999999999,0,0,0,99,0.2,0,0
2023,3,11,9,60,9,36.8,9.5,19.0,101325,0,0,0,0,0,0,0,0,0,0,0,8.3,0,0,9999,77777,9,999999999,0,0,0,99,0.2,0,0
2023,3,11,10,60,9,35.6,14.0,27.0,101325,0,0,0,0,0,0,0,0,0,0,0,18.4,0,0,9999,77777,9,999999999,0,0,0,99,0.2,0,0
2023,3,11,11,60,9,35.4,14.7,29.0,101325,0,0,0,0,0,0,0,0,0,0,0,20.2,0,0,9999,77777,9,999999999,0,0,0,99,0.2,0,0
2023,3,11,12,60,9,33.5,18.0,40.0,101325,0,0,0,0,0,0,0,0,0,0,0,22.4,0,0,9999,77777,9,999999999,0,0,0,99,0.2,0,0
2023,3,11,13,60,9,31.4,16.0,39.0,101325,0,0,0,0,0,0,0,0,0,0,0,20.5,0,0,9999,77777,9,999999999,0,0,0,99,0.2,0,0
2023,3,11,14,60,9,30.4,17.6,46.0,101325,0,0,0,0,0,0,0,0,0,0,0,20.7,0,0,9999,77777,9,999999999,0,0,0,99,0.2,0,0
2023,3,11,15,60,9,29.0,17.5,50.0,101325,0,0,0,0,0,0,0,0,0,0,0,21.8,0,0,9999,77777,9,999999999,0,0,0,99,0.2,0,0
2023,3,11,16,60,9,28.5,15.5,45.0,101325,0,0,0,0,0,0,0,0,0,0,0,17.4,0,0,9999,77777,9,999999999,0,0,0,99,0.2,0,0
2023,3,11,17,60,9,27.7,16.8,51.0,101325,0,0,0,0,0,0,0,0,0,0,0,12.4,0,0,9999,77777,9,999999999,0,0,0,99,0.2,0,0
2023,3,11,18,60,9,26.8,15.7,51.0,101325,0,0,0,0,0,0,0,0,0,0,0,7.7,0,0,9999,77777,9,999999999,0,0,0,99,0.2,0,0
2023,3,11,19,60,9,26.8,14.0,45.0,101325,0,0,0,0,0,0,0,0,0,0,0,11.6,0,0,9999,77777,9,999999999,0,0,0,99,0.2,0,0
2023,3,11,20,60,9,26.8,12.1,40.0,101325,0,0,0,0,0,0,0,0,0,0,0,11.9,0,0,9999,77777,9,999999999,0,0,0,99,0.2,0,0
2023,3,11,21,60,9,24.8,12.1,45.0,101325,0,0,0,0,0,0,0,0,0,0,0,10.2,0,0,9999,77777,9,999999999,0,0,0,99,0.2,0,0
2023,3,11,22,60,9,23.7,13.1,52.0,101325,0,0,0,0,0,0,0,0,0,0,0,9.7,0,0,9999,77777,9,999999999,0,0,0,99,0.2,0,0
2023,3,11,23,60,9,23.2,11.6,48.0,101325,0,0,0,0,0,0,0,0,0,0,0,11.2,0,0,9999,77777,9,999999999,0,0,0,99,0.2,0,0
2023,3,11,24,60,9,23.9,13.0,50.0,101325,0,0,0,0,0,0,0,0,0,0,0,7.4,0,0,9999,77777,9,999999999,0,0,0,99,0.2,0,0
2023,3,12,1,60,9,24.3,15.0,56.0,101325,0,0,0,0,0,0,0,0,0,0,0,7.6,0,0,9999,77777,9,999999999,0,0,0,99,0.2,0,0
2023,3,12,2,60,9,23.9,14.1,54.0,101325,0,0,0,0,0,0,0,0,0,0,0,7.0,0,0,9999,77777,9,999999999,0,0,0,99,0.2,0,0
2023,3,12,3,60,9,24.5,13.2,49.0,101325,0,0,0,0,0,0,0,0,0,0,0,6.8,0,0,9999,77777,9,999999999,0,0,0,99,0.2,0,0
2023,3,12,4,60,9,27.3,12.4,40.0,101325,0,0,0,0,0,0,0,0,0,0,0,8.6,0,0,9999,77777,9,999999999,0,0,0,99,0.2,0,0
2023,3,12,5,60,9,30.1,11.8,32.0,101325,0,0,0,0,0,0,0,0,0,0,0,8.7,0,0,9999,77777,9,999999999,0,0,0,99,0.2,0,0
2023,3,12,6,60,9,33.6,11.7,26.0,101325,0,0,0,0,0,0,0,0,0,0,0,8.9,0,0,9999,77777,9,999999999,0,0,0,99,0.2,0,0
2023,3,12,7,60,9,36.2,10.8,21.0,101325,0,0,0,0,0,0,0,0,0,0,0,10.7,0,0,9999,77777,9,999999999,0,0,0,99,0.2,0,0
2023,3,12,8,60,9,37.3,10.5,20.0,101325,0,0,0,0,0,0,0,0,0,0,0,10.6,0,0,9999,77777,9,999999999,0,0,0,99,0.2,0,0
2023,3,12,9,60,9,37.7,10.0,19.0,101325,0,0,0,0,0,0,0,0,0,0,0,11.2,0,0,9999,77777,9,999999999,0,0,0,99,0.2,0,0
2023,3,12,10,60,9,35.7,12.6,25.0,101325,0,0,0,0,0,0,0,0,0,0,0,21.2,0,0,9999,77777,9,999999999,0,0,0,99,0.2,0,0
2023,3,12,11,60,9,33.7,14.0,30.0,101325,0,0,0,0,0,0,0,0,0,0,0,21.5,0,0,9999,77777,9,999999999,0,0,0,99,0.2,0,0
2023,3,12,12,60,9,32.6,15.8,36.0,101325,0,0,0,0,0,0,0,0,0,0,0,15.0,0,0,9999,77777,9,999999999,0,0,0,99,0.2,0,0
2023,3,12,13,60,9,31.2,17.1,43.0,101325,0,0,0,0,0,0,0,0,0,0,0,9.5,0,0,9999,77777,9,999999999,0,0,0,99,0.2,0,0
2023,3,12,14,60,9,29.9,18.0,49.0,101325,0,0,0,0,0,0,0,0,0,0,0,10.5,0,0,9999,77777,9,999999999,0,0,0,99,0.2,0,0
2023,3,12,15,60,9,29.1,18.8,54.0,101325,0,0,0,0,0,0,0,0,0,0,0,13.6,0,0,9999,77777,9,999999999,0,0,0,99,0.2,0,0
2023,3,12,16,60,9,29.1,16.0,45.0,101325,0,0,0,0,0,0,0,0,0,0,0,10.0,0,0,9999,77777,9,999999999,0,0,0,99,0.2,0,0
2023,3,12,17,60,9,28.8,14.7,42.0,101325,0,0,0,0,0,0,0,0,0,0,0,9.4,0,0,9999,77777,9,999999999,0,0,0,99,0.2,0,0
2023,3,12,18,60,9,28.2,14.8,44.0,101325,0,0,0,0,0,0,0,0,0,0,0,6.3,0,0,9999,77777,9,999999999,0,0,0,99,0.2,0,0
2023,3,12,19,60,9,27.1,14.1,45.0,101325,0,0,0,0,0,0,0,0,0,0,0,5.8,0,0,9999,77777,9,999999999,0,0,0,99,0.2,0,0
2023,3,12,20,60,9,27.1,13.7,44.0,101325,0,0,0,0,0,0,0,0,0,0,0,6.9,0,0,9999,77777,9,999999999,0,0,0,99,0.2,0,0
2023,3,12,21,60,9,26.0,14.1,48.0,101325,0,0,0,0,0,0,0,0,0,0,0,9.2,0,0,9999,77777,9,999999999,0,0,0,99,0.2,0,0
2023,3,12,22,60,9,26.2,13.5,45.0,101325,0,0,0,0,0,0,0,0,0,0,0,5.8,0,0,9999,77777,9,999999999,0,0,0,99,0.2,0,0
2023,3,12,23,60,9,24.5,14.2,53.0,101325,0,0,0,0,0,0,0,0,0,0,0,8.9,0,0,9999,77777,9,999999999,0,0,0,99,0.2,0,0
2023,3,12,24,60,9,24.6,14.4,53.0,101325,0,0,0,0,0,0,0,0,0,0,0,7.7,0,0,9999,77777,9,999999999,0,0,0,99,0.2,0,0
2023,3,13,1,60,9,24.3,17.9,68.0,101325,0,0,0,0,0,0,0,0,0,0,0,7.0,0,0,9999,77777,9,999999999,0,0,0,99,0.2,0,0
2023,3,13,2,60,9,24.1,17.4,66.0,101325,0,0,0,0,0,0,0,0,0,0,0,6.6,0,0,9999,77777,9,999999999,0,0,0,99,0.2,0,0
2023,3,13,3,60,9,25.8,17.0,58.0,101325,0,0,0,0,0,0,0,0,0,0,0,6.5,0,0,9999,77777,9,999999999,0,0,0,99,0.2,0,0
2023,3,13,4,60,9,27.7,16.2,49.0,101325,0,0,0,0,0,0,0,0,0,0,0,7.6,0,0,9999,77777,9,999999999,0,0,0,99,0.2,0,0
2023,3,13,5,60,9,30.6,14.9,39.0,101325,0,0,0,0,0,0,0,0,0,0,0,6.5,0,0,9999,77777,9,999999999,0,0,0,99,0.2,0,0
2023,3,13,6,60,9,34.1,14.0,30.0,101325,0,0,0,0,0,0,0,0,0,0,0,6.0,0,0,9999,77777,9,999999999,0,0,0,99,0.2,0,0
2023,3,13,7,60,9,36.0,11.6,23.0,101325,0,0,0,0,0,0,0,0,0,0,0,4.7,0,0,9999,77777,9,999999999,0,0,0,99,0.2,0,0
2023,3,13,8,60,9,37.4,9.7,19.0,101325,0,0,0,0,0,0,0,0,0,0,0,5.1,0,0,9999,77777,9,999999999,0,0,0,99,0.2,0,0
2023,3,13,9,60,9,36.7,11.7,22.0,101325,0,0,0,0,0,0,0,0,0,0,0,9.5,0,0,9999,77777,9,999999999,0,0,0,99,0.2,0,0
2023,3,13,10,60,9,34.2,18.3,39.0,101325,0,0,0,0,0,0,0,0,0,0,0,15.3,0,0,9999,77777,9,999999999,0,0,0,99,0.2,0,0
2023,3,13,11,60,9,32.9,17.1,39.0,101325,0,0,0,0,0,0,0,0,0,0,0,13.6,0,0,9999,77777,9,999999999,0,0,0,99,0.2,0,0
2023,3,13,12,60,9,32.9,17.4,40.0,101325,0,0,0,0,0,0,0,0,0,0,0,12.6,0,0,9999,77777,9,999999999,0,0,0,99,0.2,0,0
2023,3,13,13,60,9,30.9,19.2,50.0,101325,0,0,0,0,0,0,0,0,0,0,0,13.5,0,0,9999,77777,9,999999999,0,0,0,99,0.2,0,0
2023,3,13,14,60,9,28.9,21.4,64.0,101325,0,0,0,0,0,0,0,0,0,0,0,16.1,0,0,9999,77777,9,999999999,0,0,0,99,0.2,0,0
2023,3,13,15,60,9,28.1,21.4,67.0,101325,0,0,0,0,0,0,0,0,0,0,0,11.8,0,0,9999,77777,9,999999999,0,0,0,99,0.2,0,0
2023,3,13,16,60,9,27.6,21.0,68.0,101325,0,0,0,0,0,0,0,0,0,0,0,6.1,0,0,9999,77777,9,999999999,0,0,0,99,0.2,0,0
2023,3,13,17,60,9,26.8,20.4,68.0,101325,0,0,0,0,0,0,0,0,0,0,0,4.2,0,0,9999,77777,9,999999999,0,0,0,99,0.2,0,0
2023,3,13,18,60,9,26.6,20.3,68.0,101325,0,0,0,0,0,0,0,0,0,0,0,4.6,0,0,9999,77777,9,999999999,0,0,0,99,0.2,0,0
2023,3,13,19,60,9,26.1,22.5,81.0,101325,0,0,0,0,0,0,0,0,0,0,0,6.8,0,0,9999,77777,9,999999999,0,0,0,99,0.2,0,0
2023,3,13,20,60,9,26.4,22.8,81.0,101325,0,0,0,0,0,0,0,0,0,0,0,3.4,0,0,9999,77777,9,999999999,0,0,0,99,0.2,0,0
2023,3,13,21,60,9,25.0,22.8,88.0,101325,0,0,0,0,0,0,0,0,0,0,0,6.9,0,0,9999,77777,9,999999999,0,0,0,99,0.2,0,0
2023,3,13,22,60,9,25.3,22.8,86.0,101325,0,0,0,0,0,0,0,0,0,0,0,5.1,0,0,9999,77777,9,999999999,0,0,0,99,0.2,0,0
2023,3,13,23,60,9,23.6,22.4,93.0,101325,0,0,0,0,0,0,0,0,0,0,0,6.8,0,0,9999,77777,9,999999999,0,0,0,99,0.2,0,0
2023,3,13,24,60,9,23.2,21.8,92.0,101325,0,0,0,0,0,0,0,0,0,0,0,6.6,0,0,9999,77777,9,999999999,0,0,0,99,0.2,0,0
2023,3,14,1,60,9,23.9,21.8,88.0,101325,0,0,0,0,0,0,0,0,0,0,0,5.2,0,0,9999,77777,9,999999999,0,0,0,99,0.2,0,0
2023,3,14,2,60,9,24.2,21.0,82.0,101325,0,0,0,0,0,0,0,0,0,0,0,6.1,0,0,9999,77777,9,999999999,0,0,0,99,0.2,0,0
2023,3,14,3,60,9,25.0,20.6,76.0,101325,0,0,0,0,0,0,0,0,0,0,0,9.4,0,0,9999,77777,9,999999999,0,0,0,99,0.2,0,0
2023,3,14,4,60,9,27.9,19.6,61.0,101325,0,0,0,0,0,0,0,0,0,0,0,10.2,0,0,9999,77777,9,999999999,0,0,0,99,0.2,0,0
2023,3,14,5,60,9,31.4,17.1,42.0,101325,0,0,0,0,0,0,0,0,0,0,0,10.0,0,0,9999,77777,9,999999999,0,0,0,99,0.2,0,0
2023,3,14,6,60,9,35.0,12.8,26.0,101325,0,0,0,0,0,0,0,0,0,0,0,14.1,0,0,9999,77777,9,999999999,0,0,0,99,0.2,0,0
2023,3,14,7,60,9,36.6,8.7,18.0,101325,0,0,0,0,0,0,0,0,0,0,0,6.3,0,0,9999,77777,9,999999999,0,0,0,99,0.2,0,0
2023,3,14,8,60,9,34.1,18.1,39.0,101325,0,0,0,0,0,0,0,0,0,0,0,12.6,0,0,9999,77777,9,999999999,0,0,0,99,0.2,0,0
2023,3,14,9,60,9,33.1,20.8,48.0,101325,0,0,0,0,0,0,0,0,0,0,0,15.0,0,0,9999,77777,9,999999999,0,0,0,99,0.2,0,0
2023,3,14,10,60,9,33.6,18.3,40.0,101325,0,0,0,0,0,0,0,0,0,0,0,16.4,0,0,9999,77777,9,999999999,0,0,0,99,0.2,0,0
2023,3,14,11,60,9,33.0,18.9,43.0,101325,0,0,0,0,0,0,0,0,0,0,0,16.9,0,0,9999,77777,9,999999999,0,0,0,99,0.2,0,0
2023,3,14,12,60,9,32.1,19.1,46.0,101325,0,0,0,0,0,0,0,0,0,0,0,16.9,0,0,9999,77777,9,999999999,0,0,0,99,0.2,0,0
2023,3,14,13,60,9,29.5,21.5,62.0,101325,0,0,0,0,0,0,0,0,0,0,0,17.2,0,0,9999,77777,9,999999999,0,0,0,99,0.2,0,0
2023,3,14,14,60,9,28.3,21.7,68.0,101325,0,0,0,0,0,0,0,0,0,0,0,16.6,0,0,9999,77777,9,999999999,0,0,0,99,0.2,0,0
2023,3,14,15,60,9,27.7,21.1,67.0,101325,0,0,0,0,0,0,0,0,0,0,0,17.6,0,0,9999,77777,9,999999999,0,0,0,99,0.2,0,0
2023,3,14,16,60,9,27.5,20.7,66.0,101325,0,0,0,0,0,0,0,0,0,0,0,13.9,0,0,9999,77777,9,999999999,0,0,0,99,0.2,0,0
2023,3,14,17,60,9,26.9,20.7,69.0,101325,0,0,0,0,0,0,0,0,0,0,0,9.3,0,0,9999,77777,9,999999999,0,0,0,99,0.2,0,0
2023,3,14,18,60,9,26.5,19.6,66.0,101325,0,0,0,0,0,0,0,0,0,0,0,7.6,0,0,9999,77777,9,999999999,0,0,0,99,0.2,0,0
2023,3,14,19,60,9,25.8,18.6,65.0,101325,0,0,0,0,0,0,0,0,0,0,0,6.7,0,0,9999,77777,9,999999999,0,0,0,99,0.2,0,0
2023,3,14,20,60,9,26.4,18.2,61.0,101325,0,0,0,0,0,0,0,0,0,0,0,11.3,0,0,9999,77777,9,999999999,0,0,0,99,0.2,0,0
2023,3,14,21,60,9,24.9,17.2,62.0,101325,0,0,0,0,0,0,0,0,0,0,0,7.5,0,0,9999,77777,9,999999999,0,0,0,99,0.2,0,0
2023,3,14,22,60,9,25.3,18.2,65.0,101325,0,0,0,0,0,0,0,0,0,0,0,5.9,0,0,9999,77777,9,999999999,0,0,0,99,0.2,0,0
2023,3,14,23,60,9,23.3,18.5,74.0,101325,0,0,0,0,0,0,0,0,0,0,0,6.6,0,0,9999,77777,9,999999999,0,0,0,99,0.2,0,0
2023,3,14,24,60,9,24.0,18.9,73.0,101325,0,0,0,0,0,0,0,0,0,0,0,6.0,0,0,9999,77777,9,999999999,0,0,0,99,0.2,0,0
2023,3,15,1,60,9,25.2,20.2,74.0,101325,0,0,0,0,0,0,0,0,0,0,0,9.8,0,0,9999,77777,9,999999999,0,0,0,99,0.2,0,0
2023,3,15,2,60,9,24.7,20.9,80.0,101325,0,0,0,0,0,0,0,0,0,0,0,8.0,0,0,9999,77777,9,999999999,0,0,0,99,0.2,0,0
2023,3,15,3,60,9,25.2,20.3,75.0,101325,0,0,0,0,0,0,0,0,0,0,0,5.3,0,0,9999,77777,9,999999999,0,0,0,99,0.2,0,0
2023,3,15,4,60,9,27.4,18.0,57.0,101325,0,0,0,0,0,0,0,0,0,0,0,5.3,0,0,9999,77777,9,999999999,0,0,0,99,0.2,0,0
2023,3,15,5,60,9,30.4,15.6,41.0,101325,0,0,0,0,0,0,0,0,0,0,0,4.8,0,0,9999,77777,9,999999999,0,0,0,99,0.2,0,0
2023,3,15,6,60,9,32.8,13.1,30.0,101325,0,0,0,0,0,0,0,0,0,0,0,6.5,0,0,9999,77777,9,999999999,0,0,0,99,0.2,0,0
2023,3,15,7,60,9,34.1,12.0,26.0,101325,0,0,0,0,0,0,0,0,0,0,0,6.7,0,0,9999,77777,9,999999999,0,0,0,99,0.2,0,0
2023,3,15,8,60,9,34.7,12.9,27.0,101325,0,0,0,0,0,0,0,0,0,0,0,4.3,0,0,9999,77777,9,999999999,0,0,0,99,0.2,0,0
2023,3,15,9,60,9,34.0,17.1,37.0,101325,0,0,0,0,0,0,0,0,0,0,0,9.7,0,0,9999,77777,9,999999999,0,0,0,99,0.2,0,0
2023,3,15,10,60,9,33.4,18.4,41.0,101325,0,0,0,0,0,0,0,0,0,0,0,9.2,0,0,9999,77777,9,999999999,0,0,0,99,0.2,0,0
2023,3,15,11,60,9,33.3,19.3,44.0,101325,0,0,0,0,0,0,0,0,0,0,0,12.2,0,0,9999,77777,9,999999999,0,0,0,99,0.2,0,0
2023,3,15,12,60,9,32.7,19.7,46.0,101325,0,0,0,0,0,0,0,0,0,0,0,14.8,0,0,9999,77777,9,999999999,0,0,0,99,0.2,0,0
2023,3,15,13,60,9,29.3,23.2,70.0,101325,0,0,0,0,0,0,0,0,0,0,0,17.0,0,0,9999,77777,9,999999999,0,0,0,99,0.2,0,0
2023,3,15,14,60,9,28.2,23.9,78.0,101325,0,0,0,0,0,0,0,0,0,0,0,18.8,0,0,9999,77777,9,999999999,0,0,0,99,0.2,0,0
2023,3,15,15,60,9,27.5,24.0,81.0,101325,0,0,0,0,0,0,0,0,0,0,0,20.2,0,0,9999,77777,9,999999999,0,0,0,99,0.2,0,0
2023,3,15,16,60,9,27.3,24.1,83.0,101325,0,0,0,0,0,0,0,0,0,0,0,12.0,0,0,9999,77777,9,999999999,0,0,0,99,0.2,0,0
2023,3,15,17,60,9,27.1,23.1,79.0,101325,0,0,0,0,0,0,0,0,0,0,0,10.9,0,0,9999,77777,9,999999999,0,0,0,99,0.2,0,0
2023,3,15,18,60,9,26.2,21.9,77.0,101325,0,0,0,0,0,0,0,0,0,0,0,10.0,0,0,9999,77777,9,999999999,0,0,0,99,0.2,0,0
2023,3,15,19,60,9,25.7,20.0,71.0,101325,0,0,0,0,0,0,0,0,0,0,0,12.2,0,0,9999,77777,9,999999999,0,0,0,99,0.2,0,0
2023,3,15,20,60,9,25.8,19.2,67.0,101325,0,0,0,0,0,0,0,0,0,0,0,13.4,0,0,9999,77777,9,999999999,0,0,0,99,0.2,0,0
2023,3,15,21,60,9,25.4,18.6,66.0,101325,0,0,0,0,0,0,0,0,0,0,0,17.7,0,0,9999,77777,9,999999999,0,0,0,99,0.2,0,0
2023,3,15,22,60,9,25.3,18.1,64.0,101325,0,0,0,0,0,0,0,0,0,0,0,14.5,0,0,9999,77777,9,999999999,0,0,0,99,0.2,0,0
2023,3,15,23,60,9,25.5,17.3,60.0,101325,0,0,0,0,0,0,0,0,0,0,0,12.3,0,0,9999,77777,9,999999999,0,0,0,99,0.2,0,0
2023,3,15,24,60,9,25.1,17.6,63.0,101325,0,0,0,0,0,0,0,0,0,0,0,6.8,0,0,9999,77777,9,999999999,0,0,0,99,0.2,0,0
2023,3,16,1,60,9,25.1,19.7,72.0,101325,0,0,0,0,0,0,0,0,0,0,0,5.6,0,0,9999,77777,9,999999999,0,0,0,99,0.2,0,0
2023,3,16,2,60,9,24.7,19.9,75.0,101325,0,0,0,0,0,0,0,0,0,0,0,6.3,0,0,9999,77777,9,999999999,0,0,0,99,0.2,0,0
2023,3,16,3,60,9,26.1,20.1,70.0,101325,0,0,0,0,0,0,0,0,0,0,0,6.4,0,0,9999,77777,9,999999999,0,0,0,99,0.2,0,0
2023,3,16,4,60,9,27.8,18.0,55.0,101325,0,0,0,0,0,0,0,0,0,0,0,4.6,0,0,9999,77777,9,999999999,0,0,0,99,0.2,0,0
2023,3,16,5,60,9,29.4,17.3,48.0,101325,0,0,0,0,0,0,0,0,0,0,0,4.2,0,0,9999,77777,9,999999999,0,0,0,99,0.2,0,0
2023,3,16,6,60,9,31.3,17.0,42.0,101325,0,0,0,0,0,0,0,0,0,0,0,7.2,0,0,9999,77777,9,999999999,0,0,0,99,0.2,0,0
2023,3,16,7,60,9,32.3,16.9,40.0,101325,0,0,0,0,0,0,0,0,0,0,0,9.1,0,0,9999,77777,9,999999999,0,0,0,99,0.2,0,0
2023,3,16,8,60,9,32.3,17.0,40.0,101325,0,0,0,0,0,0,0,0,0,0,0,7.2,0,0,9999,77777,9,999999999,0,0,0,99,0.2,0,0
2023,3,16,9,60,9,32.2,17.2,41.0,101325,0,0,0,0,0,0,0,0,0,0,0,11.2,0,0,9999,77777,9,999999999,0,0,0,99,0.2,0,0
2023,3,16,10,60,9,30.5,22.4,62.0,101325,0,0,0,0,0,0,0,0,0,0,0,20.5,0,0,9999,77777,9,999999999,0,0,0,99,0.2,0,0
2023,3,16,11,60,9,29.8,23.1,67.0,101325,0,0,0,0,0,0,0,0,0,0,0,8.1,0,0,9999,77777,9,999999999,0,0,0,99,0.2,0,0
2023,3,16,12,60,9,28.1,23.0,74.0,101325,0,0,0,0,0,0,0,0,0,0,0,7.1,0,0,9999,77777,9,999999999,0,0,0,99,0.2,0,0
2023,3,16,13,60,9,29.6,23.8,71.0,101325,0,0,0,0,0,0,0,0,0,0,0,10.5,0,0,9999,77777,9,999999999,0,0,0,99,0.2,0,0
2023,3,16,14,60,9,27.4,23.4,79.0,101325,0,0,0,0,0,0,0,0,0,0,0,7.4,0,0,9999,77777,9,999999999,0,0,0,99,0.2,0,0
2023,3,16,15,60,9,23.0,21.4,91.0,101325,0,0,0,0,0,0,0,0,0,0,0,12.7,0,0,9999,77777,9,999999999,0,0,0,99,0.2,0,0
2023,3,16,16,60,9,23.2,20.7,86.0,101325,0,0,0,0,0,0,0,0,0,0,0,8.8,0,0,9999,77777,9,999999999,0,0,0,99,0.2,0,0
2023,3,16,17,60,9,23.2,21.0,87.0,101325,0,0,0,0,0,0,0,0,0,0,0,6.2,0,0,9999,77777,9,999999999,0,0,0,99,0.2,0,0
2023,3,16,18,60,9,22.8,21.4,92.0,101325,0,0,0,0,0,0,0,0,0,0,0,2.2,0,0,9999,77777,9,999999999,0,0,0,99,0.2,0,0
2023,3,16,19,60,9,23.0,21.7,92.0,101325,0,0,0,0,0,0,0,0,0,0,0,5.2,0,0,9999,77777,9,999999999,0,0,0,99,0.2,0,0
2023,3,16,20,60,9,22.4,21.9,97.0,101325,0,0,0,0,0,0,0,0,0,0,0,4.9,0,0,9999,77777,9,999999999,0,0,0,99,0.2,0,0
2023,3,16,21,60,9,22.9,22.2,96.0,101325,0,0,0,0,0,0,0,0,0,0,0,4.1,0,0,9999,77777,9,999999999,0,0,0,99,0.2,0,0
2023,3,16,22,60,9,23.1,22.3,96.0,101325,0,0,0,0,0,0,0,0,0,0,0,4.4,0,0,9999,77777,9,999999999,0,0,0,99,0.2,0,0
2023,3,16,23,60,9,22.9,22.1,95.0,101325,0,0,0,0,0,0,0,0,0,0,0,4.8,0,0,9999,77777,9,999999999,0,0,0,99,0.2,0,0
2023,3,16,24,60,9,22.9,21.9,94.0,101325,0,0,0,0,0,0,0,0,0,0,0,5.5,0,0,9999,77777,9,999999999,0,0,0,99,0.2,0,0
2023,3,17,1,60,9,24.6,23.0,91.0,101325,0,0,0,0,0,0,0,0,0,0,0,7.2,0,0,9999,77777,9,999999999,0,0,0,99,0.2,0,0
2023,3,17,2,60,9,24.4,22.1,87.0,101325,0,0,0,0,0,0,0,0,0,0,0,5.0,0,0,9999,77777,9,999999999,0,0,0,99,0.2,0,0
2023,3,17,3,60,9,25.3,20.8,76.0,101325,0,0,0,0,0,0,0,0,0,0,0,7.4,0,0,9999,77777,9,999999999,0,0,0,99,0.2,0,0
2023,3,17,4,60,9,26.9,19.1,62.0,101325,0,0,0,0,0,0,0,0,0,0,0,8.3,0,0,9999,77777,9,999999999,0,0,0,99,0.2,0,0
2023,3,17,5,60,9,28.6,19.3,57.0,101325,0,0,0,0,0,0,0,0,0,0,0,9.0,0,0,9999,77777,9,999999999,0,0,0,99,0.2,0,0
2023,3,17,6,60,9,29.2,19.8,57.0,101325,0,0,0,0,0,0,0,0,0,0,0,10.1,0,0,9999,77777,9,999999999,0,0,0,99,0.2,0,0
2023,3,17,7,60,9,30.3,19.8,53.0,101325,0,0,0,0,0,0,0,0,0,0,0,11.1,0,0,9999,77777,9,999999999,0,0,0,99,0.2,0,0
2023,3,17,8,60,9,30.7,20.0,53.0,101325,0,0,0,0,0,0,0,0,0,0,0,12.8,0,0,9999,77777,9,999999999,0,0,0,99,0.2,0,0
2023,3,17,9,60,9,30.5,20.5,55.0,101325,0,0,0,0,0,0,0,0,0,0,0,16.3,0,0,9999,77777,9,999999999,0,0,0,99,0.2,0,0
2023,3,17,10,60,9,30.5,21.0,57.0,101325,0,0,0,0,0,0,0,0,0,0,0,11.0,0,0,9999,77777,9,999999999,0,0,0,99,0.2,0,0
2023,3,17,11,60,9,29.1,21.8,65.0,101325,0,0,0,0,0,0,0,0,0,0,0,9.3,0,0,9999,77777,9,999999999,0,0,0,99,0.2,0,0
2023,3,17,12,60,9,27.9,21.2,67.0,101325,0,0,0,0,0,0,0,0,0,0,0,11.8,0,0,9999,77777,9,999999999,0,0,0,99,0.2,0,0
2023,3,17,13,60,9,29.4,21.0,61.0,101325,0,0,0,0,0,0,0,0,0,0,0,10.8,0,0,9999,77777,9,999999999,0,0,0,99,0.2,0,0
2023,3,17,14,60,9,28.0,22.5,72.0,101325,0,0,0,0,0,0,0,0,0,0,0,12.8,0,0,9999,77777,9,999999999,0,0,0,99,0.2,0,0
2023,3,17,15,60,9,27.1,23.3,80.0,101325,0,0,0,0,0,0,0,0,0,0,0,13.2,0,0,9999,77777,9,999999999,0,0,0,99,0.2,0,0
2023,3,17,16,60,9,26.5,23.6,84.0,101325,0,0,0,0,0,0,0,0,0,0,0,12.7,0,0,9999,77777,9,999999999,0,0,0,99,0.2,0,0
2023,3,17,17,60,9,26.1,23.6,86.0,101325,0,0,0,0,0,0,0,0,0,0,0,9.9,0,0,9999,77777,9,999999999,0,0,0,99,0.2,0,0
2023,3,17,18,60,9,25.7,23.7,89.0,101325,0,0,0,0,0,0,0,0,0,0,0,9.3,0,0,9999,77777,9,999999999,0,0,0,99,0.2,0,0
2023,3,17,19,60,9,25.3,24.1,93.0,101325,0,0,0,0,0,0,0,0,0,0,0,7.2,0,0,9999,77777,9,999999999,0,0,0,99,0.2,0,0
2023,3,17,20,60,9,24.8,24.2,96.0,101325,0,0,0,0,0,0,0,0,0,0,0,4.1,0,0,9999,77777,9,999999999,0,0,0,99,0.2,0,0
2023,3,17,21,60,9,24.2,23.6,96.0,101325,0,0,0,0,0,0,0,0,0,0,0,4.1,0,0,9999,77777,9,999999999,0,0,0,99,0.2,0,0
2023,3,17,22,60,9,24.2,23.6,96.0,101325,0,0,0,0,0,0,0,0,0,0,0,4.6,0,0,9999,77777,9,999999999,0,0,0,99,0.2,0,0
2023,3,17,23,60,9,24.5,23.8,96.0,101325,0,0,0,0,0,0,0,0,0,0,0,7.6,0,0,9999,77777,9,999999999,0,0,0,99,0.2,0,0
2023,3,17,24,60,9,24.5,23.6,95.0,101325,0,0,0,0,0,0,0,0,0,0,0,8.1,0,0,9999,77777,9,999999999,0,0,0,99,0.2,0,0
2023,3,18,1,60,9,24.6,24.2,98.0,101325,0,0,0,0,0,0,0,0,0,0,0,6.1,0,0,9999,77777,9,999999999,0,0,0,99,0.2,0,0
2023,3,18,2,60,9,24.1,23.7,98.0,101325,0,0,0,0,0,0,0,0,0,0,0,6.5,0,0,9999,77777,9,999999999,0,0,0,99,0.2,0,0
2023,3,18,3,60,9,24.7,23.4,93.0,101325,0,0,0,0,0,0,0,0,0,0,0,8.3,0,0,9999,77777,9,999999999,0,0,0,99,0.2,0,0
2023,3,18,4,60,9,26.1,23.6,86.0,101325,0,0,0,0,0,0,0,0,0,0,0,5.2,0,0,9999,77777,9,999999999,0,0,0,99,0.2,0,0
2023,3,18,5,60,9,28.0,22.9,74.0,101325,0,0,0,0,0,0,0,0,0,0,0,5.8,0,0,9999,77777,9,999999999,0,0,0,99,0.2,0,0
2023,3,18,6,60,9,29.7,21.1,60.0,101325,0,0,0,0,0,0,0,0,0,0,0,5.5,0,0,9999,77777,9,999999999,0,0,0,99,0.2,0,0
2023,3,18,7,60,9,30.6,20.4,55.0,101325,0,0,0,0,0,0,0,0,0,0,0,8.6,0,0,9999,77777,9,999999999,0,0,0,99,0.2,0,0
2023,3,18,8,60,9,30.8,21.1,56.0,101325,0,0,0,0,0,0,0,0,0,0,0,12.6,0,0,9999,77777,9,999999999,0,0,0,99,0.2,0,0
2023,3,18,9,60,9,30.7,21.9,59.0,101325,0,0,0,0,0,0,0,0,0,0,0,15.2,0,0,9999,77777,9,999999999,0,0,0,99,0.2,0,0
2023,3,18,10,60,9,30.5,21.4,59.0,101325,0,0,0,0,0,0,0,0,0,0,0,17.3,0,0,9999,77777,9,999999999,0,0,0,99,0.2,0,0
2023,3,18,11,60,9,30.0,20.4,57.0,101325,0,0,0,0,0,0,0,0,0,0,0,18.1,0,0,9999,77777,9,999999999,0,0,0,99,0.2,0,0
2023,3,18,12,60,9,29.4,21.0,61.0,101325,0,0,0,0,0,0,0,0,0,0,0,16.9,0,0,9999,77777,9,999999999,0,0,0,99,0.2,0,0
2023,3,18,13,60,9,28.6,21.9,67.0,101325,0,0,0,0,0,0,0,0,0,0,0,18.9,0,0,9999,77777,9,999999999,0,0,0,99,0.2,0,0
2023,3,18,14,60,9,27.5,22.9,76.0,101325,0,0,0,0,0,0,0,0,0,0,0,16.1,0,0,9999,77777,9,999999999,0,0,0,99,0.2,0,0
2023,3,18,15,60,9,26.8,23.4,82.0,101325,0,0,0,0,0,0,0,0,0,0,0,14.5,0,0,9999,77777,9,999999999,0,0,0,99,0.2,0,0
2023,3,18,16,60,9,26.4,23.5,84.0,101325,0,0,0,0,0,0,0,0,0,0,0,13.4,0,0,9999,77777,9,999999999,0,0,0,99,0.2,0,0
2023,3,18,17,60,9,25.9,23.8,88.0,101325,0,0,0,0,0,0,0,0,0,0,0,15.1,0,0,9999,77777,9,999999999,0,0,0,99,0.2,0,0
2023,3,18,18,60,9,25.8,23.1,85.0,101325,0,0,0,0,0,0,0,0,0,0,0,14.3,0,0,9999,77777,9,999999999,0,0,0,99,0.2,0,0
2023,3,18,19,60,9,25.6,21.5,78.0,101325,0,0,0,0,0,0,0,0,0,0,0,11.3,0,0,9999,77777,9,999999999,0,0,0,99,0.2,0,0
2023,3,18,20,60,9,24.9,21.5,81.0,101325,0,0,0,0,0,0,0,0,0,0,0,7.8,0,0,9999,77777,9,999999999,0,0,0,99,0.2,0,0
2023,3,18,21,60,9,23.4,22.0,92.0,101325,0,0,0,0,0,0,0,0,0,0,0,5.8,0,0,9999,77777,9,999999999,0,0,0,99,0.2,0,0
2023,3,18,22,60,9,22.8,21.9,95.0,101325,0,0,0,0,0,0,0,0,0,0,0,5.7,0,0,9999,77777,9,999999999,0,0,0,99,0.2,0,0
2023,3,18,23,60,9,22.7,21.9,95.0,101325,0,0,0,0,0,0,0,0,0,0,0,4.8,0,0,9999,77777,9,999999999,0,0,0,99,0.2,0,0
2023,3,18,24,60,9,22.9,22.1,95.0,101325,0,0,0,0,0,0,0,0,0,0,0,4.0,0,0,9999,77777,9,999999999,0,0,0,99,0.2,0,0
2023,3,19,1,60,9,23.8,22.2,91.0,101325,0,0,0,0,0,0,0,0,0,0,0,3.6,0,0,9999,77777,9,999999999,0,0,0,99,0.2,0,0
2023,3,19,2,60,9,23.0,21.9,94.0,101325,0,0,0,0,0,0,0,0,0,0,0,4.0,0,0,9999,77777,9,999999999,0,0,0,99,0.2,0,0
2023,3,19,3,60,9,24.0,21.9,88.0,101325,0,0,0,0,0,0,0,0,0,0,0,4.7,0,0,9999,77777,9,999999999,0,0,0,99,0.2,0,0
2023,3,19,4,60,9,25.6,21.7,79.0,101325,0,0,0,0,0,0,0,0,0,0,0,3.1,0,0,9999,77777,9,999999999,0,0,0,99,0.2,0,0
2023,3,19,5,60,9,27.1,21.2,70.0,101325,0,0,0,0,0,0,0,0,0,0,0,2.3,0,0,9999,77777,9,999999999,0,0,0,99,0.2,0,0
2023,3,19,6,60,9,28.5,20.2,61.0,101325,0,0,0,0,0,0,0,0,0,0,0,6.1,0,0,9999,77777,9,999999999,0,0,0,99,0.2,0,0
2023,3,19,7,60,9,29.3,20.2,58.0,101325,0,0,0,0,0,0,0,0,0,0,0,10.4,0,0,9999,77777,9,999999999,0,0,0,99,0.2,0,0
2023,3,19,8,60,9,29.8,19.3,53.0,101325,0,0,0,0,0,0,0,0,0,0,0,13.5,0,0,9999,77777,9,999999999,0,0,0,99,0.2,0,0
2023,3,19,9,60,9,29.7,19.3,54.0,101325,0,0,0,0,0,0,0,0,0,0,0,15.9,0,0,9999,77777,9,999999999,0,0,0,99,0.2,0,0
2023,3,19,10,60,9,29.6,19.6,55.0,101325,0,0,0,0,0,0,0,0,0,0,0,17.6,0,0,9999,77777,9,999999999,0,0,0,99,0.2,0,0
2023,3,19,11,60,9,28.9,20.4,60.0,101325,0,0,0,0,0,0,0,0,0,0,0,18.8,0,0,9999,77777,9,999999999,0,0,0,99,0.2,0,0
2023,3,19,12,60,9,28.3,20.4,62.0,101325,0,0,0,0,0,0,0,0,0,0,0,18.4,0,0,9999,77777,9,999999999,0,0,0,99,0.2,0,0
2023,3,19,13,60,9,27.8,19.9,62.0,101325,0,0,0,0,0,0,0,0,0,0,0,16.6,0,0,9999,77777,9,999999999,0,0,0,99,0.2,0,0
2023,3,19,14,60,9,27.0,20.1,66.0,101325,0,0,0,0,0,0,0,0,0,0,0,15.5,0,0,9999,77777,9,999999999,0,0,0,99,0.2,0,0
2023,3,19,15,60,9,26.6,19.8,66.0,101325,0,0,0,0,0,0,0,0,0,0,0,13.3,0,0,9999,77777,9,999999999,0,0,0,99,0.2,0,0
2023,3,19,16,60,9,26.3,20.1,69.0,101325,0,0,0,0,0,0,0,0,0,0,0,11.2,0,0,9999,77777,9,999999999,0,0,0,99,0.2,0,0
2023,3,19,17,60,9,26.0,20.4,71.0,101325,0,0,0,0,0,0,0,0,0,0,0,8.7,0,0,9999,77777,9,999999999,0,0,0,99,0.2,0,0
2023,3,19,18,60,9,25.6,20.7,74.0,101325,0,0,0,0,0,0,0,0,0,0,0,8.0,0,0,9999,77777,9,999999999,0,0,0,99,0.2,0,0
2023,3,19,19,60,9,25.3,20.9,77.0,101325,0,0,0,0,0,0,0,0,0,0,0,7.5,0,0,9999,77777,9,999999999,0,0,0,99,0.2,0,0
2023,3,19,20,60,9,25.2,20.5,75.0,101325,0,0,0,0,0,0,0,0,0,0,0,8.0,0,0,9999,77777,9,999999999,0,0,0,99,0.2,0,0
2023,3,19,21,60,9,25.2,19.8,72.0,101325,0,0,0,0,0,0,0,0,0,0,0,7.2,0,0,9999,77777,9,999999999,0,0,0,99,0.2,0,0
2023,3,19,22,60,9,24.7,19.9,75.0,101325,0,0,0,0,0,0,0,0,0,0,0,6.6,0,0,9999,77777,9,999999999,0,0,0,99,0.2,0,0
2023,3,19,23,60,9,24.1,20.4,80.0,101325,0,0,0,0,0,0,0,0,0,0,0,6.2,0,0,9999,77777,9,999999999,0,0,0,99,0.2,0,0
2023,3,19,24,60,9,23.5,20.8,85.0,101325,0,0,0,0,0,0,0,0,0,0,0,5.5,0,0,9999,77777,9,999999999,0,0,0,99,0.2,0,0
2023,3,20,1,60,9,24.4,20.7,80.0,101325,0,0,0,0,0,0,0,0,0,0,0,8.4,0,0,9999,77777,9,999999999,0,0,0,99,0.2,0,0
2023,3,20,2,60,9,23.3,21.2,88.0,101325,0,0,0,0,0,0,0,0,0,0,0,4.8,0,0,9999,77777,9,999999999,0,0,0,99,0.2,0,0
2023,3,20,3,60,9,23.9,21.5,86.0,101325,0,0,0,0,0,0,0,0,0,0,0,7.1,0,0,9999,77777,9,999999999,0,0,0,99,0.2,0,0
2023,3,20,4,60,9,25.2,21.0,78.0,101325,0,0,0,0,0,0,0,0,0,0,0,6.4,0,0,9999,77777,9,999999999,0,0,0,99,0.2,0,0
2023,3,20,5,60,9,26.8,19.4,64.0,101325,0,0,0,0,0,0,0,0,0,0,0,3.0,0,0,9999,77777,9,999999999,0,0,0,99,0.2,0,0
2023,3,20,6,60,9,28.4,17.6,52.0,101325,0,0,0,0,0,0,0,0,0,0,0,7.2,0,0,9999,77777,9,999999999,0,0,0,99,0.2,0,0
2023,3,20,7,60,9,29.4,17.3,48.0,101325,0,0,0,0,0,0,0,0,0,0,0,11.8,0,0,9999,77777,9,999999999,0,0,0,99,0.2,0,0
2023,3,20,8,60,9,29.4,17.9,50.0,101325,0,0,0,0,0,0,0,0,0,0,0,15.9,0,0,9999,77777,9,999999999,0,0,0,99,0.2,0,0
2023,3,20,9,60,9,29.5,17.1,47.0,101325,0,0,0,0,0,0,0,0,0,0,0,16.9,0,0,9999,77777,9,999999999,0,0,0,99,0.2,0,0
2023,3,20,10,60,9,29.3,16.9,47.0,101325,0,0,0,0,0,0,0,0,0,0,0,17.3,0,0,9999,77777,9,999999999,0,0,0,99,0.2,0,0
2023,3,20,11,60,9,28.9,16.6,48.0,101325,0,0,0,0,0,0,0,0,0,0,0,17.4,0,0,9999,77777,9,999999999,0,0,0,99,0.2,0,0
2023,3,20,12,60,9,28.2,17.5,52.0,101325,0,0,0,0,0,0,0,0,0,0,0,15.4,0,0,9999,77777,9,999999999,0,0,0,99,0.2,0,0
2023,3,20,13,60,9,27.5,18.3,57.0,101325,0,0,0,0,0,0,0,0,0,0,0,14.5,0,0,9999,77777,9,999999999,0,0,0,99,0.2,0,0
2023,3,20,14,60,9,26.6,19.0,63.0,101325,0,0,0,0,0,0,0,0,0,0,0,14.1,0,0,9999,77777,9,999999999,0,0,0,99,0.2,0,0
2023,3,20,15,60,9,26.0,19.6,68.0,101325,0,0,0,0,0,0,0,0,0,0,0,10.8,0,0,9999,77777,9,999999999,0,0,0,99,0.2,0,0
2023,3,20,16,60,9,25.6,20.0,71.0,101325,0,0,0,0,0,0,0,0,0,0,0,7.3,0,0,9999,77777,9,999999999,0,0,0,99,0.2,0,0
2023,3,20,17,60,9,25.3,20.2,73.0,101325,0,0,0,0,0,0,0,0,0,0,0,6.3,0,0,9999,77777,9,999999999,0,0,0,99,0.2,0,0
2023,3,20,18,60,9,24.8,20.5,77.0,101325,0,0,0,0,0,0,0,0,0,0,0,4.3,0,0,9999,77777,9,999999999,0,0,0,99,0.2,0,0
2023,3,20,19,60,9,24.8,20.5,77.0,101325,0,0,0,0,0,0,0,0,0,0,0,4.4,0,0,9999,77777,9,999999999,0,0,0,99,0.2,0,0
2023,3,20,20,60,9,25.5,20.5,74.0,101325,0,0,0,0,0,0,0,0,0,0,0,3.4,0,0,9999,77777,9,999999999,0,0,0,99,0.2,0,0
2023,3,20,21,60,9,24.9,20.5,77.0,101325,0,0,0,0,0,0,0,0,0,0,0,4.0,0,0,9999,77777,9,999999999,0,0,0,99,0.2,0,0
2023,3,20,22,60,9,24.8,20.8,78.0,101325,0,0,0,0,0,0,0,0,0,0,0,3.6,0,0,9999,77777,9,999999999,0,0,0,99,0.2,0,0
2023,3,20,23,60,9,24.5,20.8,80.0,101325,0,0,0,0,0,0,0,0,0,0,0,1.8,0,0,9999,77777,9,999999999,0,0,0,99,0.2,0,0
2023,3,20,24,60,9,23.0,21.2,90.0,101325,0,0,0,0,0,0,0,0,0,0,0,4.5,0,0,9999,77777,9,999999999,0,0,0,99,0.2,0,0
2023,3,21,1,60,9,21.8,19.7,88.0,101325,0,0,0,0,0,0,0,0,0,0,0,8.1,0,0,9999,77777,9,999999999,0,0,0,99,0.2,0,0
2023,3,21,2,60,9,22.6,19.4,82.0,101325,0,0,0,0,0,0,0,0,0,0,0,4.5,0,0,9999,77777,9,999999999,0,0,0,99,0.2,0,0
2023,3,21,3,60,9,22.6,19.9,84.0,101325,0,0,0,0,0,0,0,0,0,0,0,9.3,0,0,9999,77777,9,999999999,0,0,0,99,0.2,0,0
2023,3,21,4,60,9,23.4,19.9,81.0,101325,0,0,0,0,0,0,0,0,0,0,0,4.6,0,0,9999,77777,9,999999999,0,0,0,99,0.2,0,0
2023,3,21,5,60,9,24.8,19.7,73.0,101325,0,0,0,0,0,0,0,0,0,0,0,6.8,0,0,9999,77777,9,999999999,0,0,0,99,0.2,0,0
2023,3,21,6,60,9,26.6,19.5,65.0,101325,0,0,0,0,0,0,0,0,0,0,0,2.8,0,0,9999,77777,9,999999999,0,0,0,99,0.2,0,0
2023,3,21,7,60,9,28.2,19.3,59.0,101325,0,0,0,0,0,0,0,0,0,0,0,6.4,0,0,9999,77777,9,999999999,0,0,0,99,0.2,0,0
2023,3,21,8,60,9,28.9,19.0,55.0,101325,0,0,0,0,0,0,0,0,0,0,0,9.7,0,0,9999,77777,9,999999999,0,0,0,99,0.2,0,0
2023,3,21,9,60,9,29.0,18.4,53.0,101325,0,0,0,0,0,0,0,0,0,0,0,12.2,0,0,9999,77777,9,999999999,0,0,0,99,0.2,0,0
2023,3,21,10,60,9,28.8,18.7,54.0,101325,0,0,0,0,0,0,0,0,0,0,0,14.4,0,0,9999,77777,9,999999999,0,0,0,99,0.2,0,0
2023,3,21,11,60,9,28.5,19.1,57.0,101325,0,0,0,0,0,0,0,0,0,0,0,15.2,0,0,9999,77777,9,999999999,0,0,0,99,0.2,0,0
2023,3,21,12,60,9,28.0,19.5,60.0,101325,0,0,0,0,0,0,0,0,0,0,0,16.4,0,0,9999,77777,9,999999999,0,0,0,99,0.2,0,0
2023,3,21,13,60,9,27.5,19.4,61.0,101325,0,0,0,0,0,0,0,0,0,0,0,14.7,0,0,9999,77777,9,999999999,0,0,0,99,0.2,0,0
2023,3,21,14,60,9,26.7,19.8,66.0,101325,0,0,0,0,0,0,0,0,0,0,0,13.0,0,0,9999,77777,9,999999999,0,0,0,99,0.2,0,0
2023,3,21,15,60,9,26.1,20.4,71.0,101325,0,0,0,0,0,0,0,0,0,0,0,9.8,0,0,9999,77777,9,999999999,0,0,0,99,0.2,0,0
2023,3,21,16,60,9,25.8,20.6,73.0,101325,0,0,0,0,0,0,0,0,0,0,0,7.9,0,0,9999,77777,9,999999999,0,0,0,99,0.2,0,0
2023,3,21,17,60,9,25.3,20.8,76.0,101325,0,0,0,0,0,0,0,0,0,0,0,5.2,0,0,9999,77777,9,999999999,0,0,0,99,0.2,0,0
2023,3,21,18,60,9,24.4,21.1,82.0,101325,0,0,0,0,0,0,0,0,0,0,0,6.0,0,0,9999,77777,9,999999999,0,0,0,99,0.2,0,0
2023,3,21,19,60,9,24.8,21.1,80.0,101325,0,0,0,0,0,0,0,0,0,0,0,4.4,0,0,9999,77777,9,999999999,0,0,0,99,0.2,0,0
2023,3,21,20,60,9,25.3,21.3,79.0,101325,0,0,0,0,0,0,0,0,0,0,0,2.7,0,0,9999,77777,9,999999999,0,0,0,99,0.2,0,0
2023,3,21,21,60,9,23.9,21.7,87.0,101325,0,0,0,0,0,0,0,0,0,0,0,3.7,0,0,9999,77777,9,999999999,0,0,0,99,0.2,0,0
2023,3,21,22,60,9,23.0,21.8,93.0,101325,0,0,0,0,0,0,0,0,0,0,0,4.8,0,0,9999,77777,9,999999999,0,0,0,99,0.2,0,0
2023,3,21,23,60,9,22.6,21.9,96.0,101325,0,0,0,0,0,0,0,0,0,0,0,4.8,0,0,9999,77777,9,999999999,0,0,0,99,0.2,0,0
2023,3,21,24,60,9,22.9,22.1,96.0,101325,0,0,0,0,0,0,0,0,0,0,0,4.2,0,0,9999,77777,9,999999999,0,0,0,99,0.2,0,0
2023,3,22,1,60,9,23.1,22.2,95.0,101325,0,0,0,0,0,0,0,0,0,0,0,4.8,0,0,9999,77777,9,999999999,0,0,0,99,0.2,0,0
2023,3,22,2,60,9,23.1,22.5,96.0,101325,0,0,0,0,0,0,0,0,0,0,0,4.3,0,0,9999,77777,9,999999999,0,0,0,99,0.2,0,0
2023,3,22,3,60,9,23.6,22.4,93.0,101325,0,0,0,0,0,0,0,0,0,0,0,8.2,0,0,9999,77777,9,999999999,0,0,0,99,0.2,0,0
2023,3,22,4,60,9,25.5,21.0,76.0,101325,0,0,0,0,0,0,0,0,0,0,0,6.8,0,0,9999,77777,9,999999999,0,0,0,99,0.2,0,0
2023,3,22,5,60,9,27.4,19.6,63.0,101325,0,0,0,0,0,0,0,0,0,0,0,2.4,0,0,9999,77777,9,999999999,0,0,0,99,0.2,0,0
2023,3,22,6,60,9,28.7,18.4,54.0,101325,0,0,0,0,0,0,0,0,0,0,0,4.1,0,0,9999,77777,9,999999999,0,0,0,99,0.2,0,0
2023,3,22,7,60,9,29.8,17.6,48.0,101325,0,0,0,0,0,0,0,0,0,0,0,7.9,0,0,9999,77777,9,999999999,0,0,0,99,0.2,0,0
2023,3,22,8,60,9,30.1,17.1,46.0,101325,0,0,0,0,0,0,0,0,0,0,0,13.3,0,0,9999,77777,9,999999999,0,0,0,99,0.2,0,0
2023,3,22,9,60,9,30.0,17.9,48.0,101325,0,0,0,0,0,0,0,0,0,0,0,15.3,0,0,9999,77777,9,999999999,0,0,0,99,0.2,0,0
2023,3,22,10,60,9,29.7,18.7,52.0,101325,0,0,0,0,0,0,0,0,0,0,0,15.8,0,0,9999,77777,9,999999999,0,0,0,99,0.2,0,0
2023,3,22,11,60,9,29.4,18.9,53.0,101325,0,0,0,0,0,0,0,0,0,0,0,15.8,0,0,9999,77777,9,999999999,0,0,0,99,0.2,0,0
2023,3,22,12,60,9,28.8,19.1,56.0,101325,0,0,0,0,0,0,0,0,0,0,0,15.0,0,0,9999,77777,9,999999999,0,0,0,99,0.2,0,0
2023,3,22,13,60,9,28.0,18.7,57.0,101325,0,0,0,0,0,0,0,0,0,0,0,15.3,0,0,9999,77777,9,999999999,0,0,0,99,0.2,0,0
2023,3,22,14,60,9,27.1,19.5,63.0,101325,0,0,0,0,0,0,0,0,0,0,0,14.0,0,0,9999,77777,9,999999999,0,0,0,99,0.2,0,0
2023,3,22,15,60,9,26.5,20.2,69.0,101325,0,0,0,0,0,0,0,0,0,0,0,10.2,0,0,9999,77777,9,999999999,0,0,0,99,0.2,0,0
2023,3,22,16,60,9,26.1,20.6,72.0,101325,0,0,0,0,0,0,0,0,0,0,0,10.8,0,0,9999,77777,9,999999999,0,0,0,99,0.2,0,0
2023,3,22,17,60,9,25.8,20.8,74.0,101325,0,0,0,0,0,0,0,0,0,0,0,10.2,0,0,9999,77777,9,999999999,0,0,0,99,0.2,0,0
2023,3,22,18,60,9,25.2,21.2,78.0,101325,0,0,0,0,0,0,0,0,0,0,0,6.1,0,0,9999,77777,9,999999999,0,0,0,99,0.2,0,0
2023,3,22,19,60,9,24.1,21.6,86.0,101325,0,0,0,0,0,0,0,0,0,0,0,5.9,0,0,9999,77777,9,999999999,0,0,0,99,0.2,0,0
2023,3,22,20,60,9,24.3,21.5,85.0,101325,0,0,0,0,0,0,0,0,0,0,0,4.7,0,0,9999,77777,9,999999999,0,0,0,99,0.2,0,0
2023,3,22,21,60,9,23.4,21.9,91.0,101325,0,0,0,0,0,0,0,0,0,0,0,4.7,0,0,9999,77777,9,999999999,0,0,0,99,0.2,0,0
2023,3,22,22,60,9,23.0,22.1,95.0,101325,0,0,0,0,0,0,0,0,0,0,0,4.1,0,0,9999,77777,9,999999999,0,0,0,99,0.2,0,0
2023,3,22,23,60,9,22.9,22.3,96.0,101325,0,0,0,0,0,0,0,0,0,0,0,4.2,0,0,9999,77777,9,999999999,0,0,0,99,0.2,0,0
2023,3,22,24,60,9,22.8,22.3,97.0,101325,0,0,0,0,0,0,0,0,0,0,0,4.2,0,0,9999,77777,9,999999999,0,0,0,99,0.2,0,0
2023,3,23,1,60,9,23.8,22.8,94.0,101325,0,0,0,0,0,0,0,0,0,0,0,3.3,0,0,9999,77777,9,999999999,0,0,0,99,0.2,0,0
2023,3,23,2,60,9,23.7,23.0,96.0,101325,0,0,0,0,0,0,0,0,0,0,0,2.9,0,0,9999,77777,9,999999999,0,0,0,99,0.2,0,0
2023,3,23,3,60,9,24.4,23.1,92.0,101325,0,0,0,0,0,0,0,0,0,0,0,4.8,0,0,9999,77777,9,999999999,0,0,0,99,0.2,0,0
2023,3,23,4,60,9,25.7,21.6,78.0,101325,0,0,0,0,0,0,0,0,0,0,0,5.7,0,0,9999,77777,9,999999999,0,0,0,99,0.2,0,0
2023,3,23,5,60,9,26.9,21.0,70.0,101325,0,0,0,0,0,0,0,0,0,0,0,5.9,0,0,9999,77777,9,999999999,0,0,0,99,0.2,0,0
2023,3,23,6,60,9,28.7,18.7,55.0,101325,0,0,0,0,0,0,0,0,0,0,0,4.9,0,0,9999,77777,9,999999999,0,0,0,99,0.2,0,0
2023,3,23,7,60,9,30.1,17.6,47.0,101325,0,0,0,0,0,0,0,0,0,0,0,8.1,0,0,9999,77777,9,999999999,0,0,0,99,0.2,0,0
2023,3,23,8,60,9,29.9,17.8,48.0,101325,0,0,0,0,0,0,0,0,0,0,0,14.9,0,0,9999,77777,9,999999999,0,0,0,99,0.2,0,0
2023,3,23,9,60,9,30.1,17.4,47.0,101325,0,0,0,0,0,0,0,0,0,0,0,17.2,0,0,9999,77777,9,999999999,0,0,0,99,0.2,0,0
2023,3,23,10,60,9,29.7,18.7,52.0,101325,0,0,0,0,0,0,0,0,0,0,0,18.6,0,0,9999,77777,9,999999999,0,0,0,99,0.2,0,0
2023,3,23,11,60,9,29.2,18.6,53.0,101325,0,0,0,0,0,0,0,0,0,0,0,18.0,0,0,9999,77777,9,999999999,0,0,0,99,0.2,0,0
2023,3,23,12,60,9,28.5,19.7,59.0,101325,0,0,0,0,0,0,0,0,0,0,0,17.6,0,0,9999,77777,9,999999999,0,0,0,99,0.2,0,0
2023,3,23,13,60,9,27.9,19.7,61.0,101325,0,0,0,0,0,0,0,0,0,0,0,17.7,0,0,9999,77777,9,999999999,0,0,0,99,0.2,0,0
2023,3,23,14,60,9,27.1,19.6,64.0,101325,0,0,0,0,0,0,0,0,0,0,0,16.4,0,0,9999,77777,9,999999999,0,0,0,99,0.2,0,0
2023,3,23,15,60,9,26.5,19.9,67.0,101325,0,0,0,0,0,0,0,0,0,0,0,14.1,0,0,9999,77777,9,999999999,0,0,0,99,0.2,0,0
2023,3,23,16,60,9,26.1,20.1,70.0,101325,0,0,0,0,0,0,0,0,0,0,0,11.5,0,0,9999,77777,9,999999999,0,0,0,99,0.2,0,0
2023,3,23,17,60,9,25.9,20.6,73.0,101325,0,0,0,0,0,0,0,0,0,0,0,10.0,0,0,9999,77777,9,999999999,0,0,0,99,0.2,0,0
2023,3,23,18,60,9,25.4,21.0,76.0,101325,0,0,0,0,0,0,0,0,0,0,0,7.7,0,0,9999,77777,9,999999999,0,0,0,99,0.2,0,0
2023,3,23,19,60,9,24.3,21.5,84.0,101325,0,0,0,0,0,0,0,0,0,0,0,5.2,0,0,9999,77777,9,999999999,0,0,0,99,0.2,0,0
2023,3,23,20,60,9,23.6,22.0,91.0,101325,0,0,0,0,0,0,0,0,0,0,0,4.8,0,0,9999,77777,9,999999999,0,0,0,99,0.2,0,0
2023,3,23,21,60,9,22.9,21.9,94.0,101325,0,0,0,0,0,0,0,0,0,0,0,4.6,0,0,9999,77777,9,999999999,0,0,0,99,0.2,0,0
2023,3,23,22,60,9,22.7,21.7,94.0,101325,0,0,0,0,0,0,0,0,0,0,0,4.3,0,0,9999,77777,9,999999999,0,0,0,99,0.2,0,0
2023,3,23,23,60,9,22.4,21.3,94.0,101325,0,0,0,0,0,0,0,0,0,0,0,4.3,0,0,9999,77777,9,999999999,0,0,0,99,0.2,0,0
2023,3,23,24,60,9,22.4,20.9,91.0,101325,0,0,0,0,0,0,0,0,0,0,0,6.3,0,0,9999,77777,9,999999999,0,0,0,99,0.2,0,0
2023,3,24,1,60,9,22.9,21.3,91.0,101325,0,0,0,0,0,0,0,0,0,0,0,4.4,0,0,9999,77777,9,999999999,0,0,0,99,0.2,0,0
2023,3,24,2,60,9,22.8,21.3,91.0,101325,0,0,0,0,0,0,0,0,0,0,0,5.0,0,0,9999,77777,9,999999999,0,0,0,99,0.2,0,0
2023,3,24,3,60,9,23.7,21.0,85.0,101325,0,0,0,0,0,0,0,0,0,0,0,8.6,0,0,9999,77777,9,999999999,0,0,0,99,0.2,0,0
2023,3,24,4,60,9,25.7,20.7,74.0,101325,0,0,0,0,0,0,0,0,0,0,0,8.4,0,0,9999,77777,9,999999999,0,0,0,99,0.2,0,0
2023,3,24,5,60,9,27.4,21.2,69.0,101325,0,0,0,0,0,0,0,0,0,0,0,3.9,0,0,9999,77777,9,999999999,0,0,0,99,0.2,0,0
2023,3,24,6,60,9,29.0,21.0,62.0,101325,0,0,0,0,0,0,0,0,0,0,0,6.1,0,0,9999,77777,9,999999999,0,0,0,99,0.2,0,0
2023,3,24,7,60,9,30.1,20.7,57.0,101325,0,0,0,0,0,0,0,0,0,0,0,12.2,0,0,9999,77777,9,999999999,0,0,0,99,0.2,0,0
2023,3,24,8,60,9,30.1,20.6,57.0,101325,0,0,0,0,0,0,0,0,0,0,0,18.2,0,0,9999,77777,9,999999999,0,0,0,99,0.2,0,0
2023,3,24,9,60,9,30.2,20.3,55.0,101325,0,0,0,0,0,0,0,0,0,0,0,20.3,0,0,9999,77777,9,999999999,0,0,0,99,0.2,0,0
2023,3,24,10,60,9,29.9,21.1,59.0,101325,0,0,0,0,0,0,0,0,0,0,0,21.8,0,0,9999,77777,9,999999999,0,0,0,99,0.2,0,0
2023,3,24,11,60,9,29.7,20.0,56.0,101325,0,0,0,0,0,0,0,0,0,0,0,22.2,0,0,9999,77777,9,999999999,0,0,0,99,0.2,0,0
2023,3,24,12,60,9,29.0,20.2,59.0,101325,0,0,0,0,0,0,0,0,0,0,0,20.9,0,0,9999,77777,9,999999999,0,0,0,99,0.2,0,0
2023,3,24,13,60,9,28.3,19.8,60.0,101325,0,0,0,0,0,0,0,0,0,0,0,17.4,0,0,9999,77777,9,999999999,0,0,0,99,0.2,0,0
2023,3,24,14,60,9,27.0,21.4,72.0,101325,0,0,0,0,0,0,0,0,0,0,0,16.6,0,0,9999,77777,9,999999999,0,0,0,99,0.2,0,0
2023,3,24,15,60,9,26.2,22.1,78.0,101325,0,0,0,0,0,0,0,0,0,0,0,15.0,0,0,9999,77777,9,999999999,0,0,0,99,0.2,0,0
2023,3,24,16,60,9,26.0,21.9,78.0,101325,0,0,0,0,0,0,0,0,0,0,0,13.5,0,0,9999,77777,9,999999999,0,0,0,99,0.2,0,0
2023,3,24,17,60,9,25.8,21.3,76.0,101325,0,0,0,0,0,0,0,0,0,0,0,11.2,0,0,9999,77777,9,999999999,0,0,0,99,0.2,0,0
2023,3,24,18,60,9,25.3,21.0,77.0,101325,0,0,0,0,0,0,0,0,0,0,0,7.5,0,0,9999,77777,9,999999999,0,0,0,99,0.2,0,0
2023,3,24,19,60,9,23.6,21.4,88.0,101325,0,0,0,0,0,0,0,0,0,0,0,6.5,0,0,9999,77777,9,999999999,0,0,0,99,0.2,0,0
2023,3,24,20,60,9,22.8,21.7,93.0,101325,0,0,0,0,0,0,0,0,0,0,0,6.1,0,0,9999,77777,9,999999999,0,0,0,99,0.2,0,0
2023,3,24,21,60,9,22.3,21.6,96.0,101325,0,0,0,0,0,0,0,0,0,0,0,6.3,0,0,9999,77777,9,999999999,0,0,0,99,0.2,0,0
2023,3,24,22,60,9,22.0,21.8,98.0,101325,0,0,0,0,0,0,0,0,0,0,0,5.9,0,0,9999,77777,9,999999999,0,0,0,99,0.2,0,0
2023,3,24,23,60,9,21.6,21.4,98.0,101325,0,0,0,0,0,0,0,0,0,0,0,6.2,0,0,9999,77777,9,999999999,0,0,0,99,0.2,0,0
2023,3,24,24,60,9,22.1,21.9,99.0,101325,0,0,0,0,0,0,0,0,0,0,0,5.3,0,0,9999,77777,9,999999999,0,0,0,99,0.2,0,0
2023,3,25,1,60,9,22.6,21.3,92.0,101325,0,0,0,0,0,0,0,0,0,0,0,7.6,0,0,9999,77777,9,999999999,0,0,0,99,0.2,0,0
2023,3,25,2,60,9,22.0,20.9,94.0,101325,0,0,0,0,0,0,0,0,0,0,0,6.5,0,0,9999,77777,9,999999999,0,0,0,99,0.2,0,0
2023,3,25,3,60,9,22.8,20.7,88.0,101325,0,0,0,0,0,0,0,0,0,0,0,10.0,0,0,9999,77777,9,999999999,0,0,0,99,0.2,0,0
2023,3,25,4,60,9,24.9,19.2,71.0,101325,0,0,0,0,0,0,0,0,0,0,0,10.5,0,0,9999,77777,9,999999999,0,0,0,99,0.2,0,0
2023,3,25,5,60,9,26.5,18.7,62.0,101325,0,0,0,0,0,0,0,0,0,0,0,8.9,0,0,9999,77777,9,999999999,0,0,0,99,0.2,0,0
2023,3,25,6,60,9,28.1,17.4,52.0,101325,0,0,0,0,0,0,0,0,0,0,0,8.2,0,0,9999,77777,9,999999999,0,0,0,99,0.2,0,0
2023,3,25,7,60,9,29.3,16.4,46.0,101325,0,0,0,0,0,0,0,0,0,0,0,12.5,0,0,9999,77777,9,999999999,0,0,0,99,0.2,0,0
2023,3,25,8,60,9,29.7,16.4,45.0,101325,0,0,0,0,0,0,0,0,0,0,0,17.7,0,0,9999,77777,9,999999999,0,0,0,99,0.2,0,0
2023,3,25,9,60,9,29.6,15.4,42.0,101325,0,0,0,0,0,0,0,0,0,0,0,21.2,0,0,9999,77777,9,999999999,0,0,0,99,0.2,0,0
2023,3,25,10,60,9,29.5,14.8,41.0,101325,0,0,0,0,0,0,0,0,0,0,0,22.3,0,0,9999,77777,9,999999999,0,0,0,99,0.2,0,0
2023,3,25,11,60,9,28.8,15.2,43.0,101325,0,0,0,0,0,0,0,0,0,0,0,23.3,0,0,9999,77777,9,999999999,0,0,0,99,0.2,0,0
2023,3,25,12,60,9,28.2,15.3,45.0,101325,0,0,0,0,0,0,0,0,0,0,0,23.4,0,0,9999,77777,9,999999999,0,0,0,99,0.2,0,0
2023,3,25,13,60,9,27.2,16.5,52.0,101325,0,0,0,0,0,0,0,0,0,0,0,23.7,0,0,9999,77777,9,999999999,0,0,0,99,0.2,0,0
2023,3,25,14,60,9,26.3,16.0,53.0,101325,0,0,0,0,0,0,0,0,0,0,0,21.2,0,0,9999,77777,9,999999999,0,0,0,99,0.2,0,0
2023,3,25,15,60,9,25.5,16.4,57.0,101325,0,0,0,0,0,0,0,0,0,0,0,16.1,0,0,9999,77777,9,999999999,0,0,0,99,0.2,0,0
2023,3,25,16,60,9,24.8,16.3,59.0,101325,0,0,0,0,0,0,0,0,0,0,0,11.3,0,0,9999,77777,9,999999999,0,0,0,99,0.2,0,0
2023,3,25,17,60,9,22.5,17.2,72.0,101325,0,0,0,0,0,0,0,0,0,0,0,8.2,0,0,9999,77777,9,999999999,0,0,0,99,0.2,0,0
2023,3,25,18,60,9,22.4,18.1,77.0,101325,0,0,0,0,0,0,0,0,0,0,0,6.9,0,0,9999,77777,9,999999999,0,0,0,99,0.2,0,0
2023,3,25,19,60,9,21.1,18.9,87.0,101325,0,0,0,0,0,0,0,0,0,0,0,8.1,0,0,9999,77777,9,999999999,0,0,0,99,0.2,0,0
2023,3,25,20,60,9,22.1,19.5,85.0,101325,0,0,0,0,0,0,0,0,0,0,0,7.4,0,0,9999,77777,9,999999999,0,0,0,99,0.2,0,0
2023,3,25,21,60,9,22.7,19.6,83.0,101325,0,0,0,0,0,0,0,0,0,0,0,8.9,0,0,9999,77777,9,999999999,0,0,0,99,0.2,0,0
2023,3,25,22,60,9,21.9,19.9,88.0,101325,0,0,0,0,0,0,0,0,0,0,0,6.6,0,0,9999,77777,9,999999999,0,0,0,99,0.2,0,0
2023,3,25,23,60,9,21.3,20.1,93.0,101325,0,0,0,0,0,0,0,0,0,0,0,5.5,0,0,9999,77777,9,999999999,0,0,0,99,0.2,0,0
2023,3,25,24,60,9,21.0,19.9,93.0,101325,0,0,0,0,0,0,0,0,0,0,0,6.6,0,0,9999,77777,9,999999999,0,0,0,99,0.2,0,0
2023,3,26,1,60,9,21.1,19.4,90.0,101325,0,0,0,0,0,0,0,0,0,0,0,7.4,0,0,9999,77777,9,999999999,0,0,0,99,0.2,0,0
2023,3,26,2,60,9,20.4,18.1,87.0,101325,0,0,0,0,0,0,0,0,0,0,0,7.9,0,0,9999,77777,9,999999999,0,0,0,99,0.2,0,0
2023,3,26,3,60,9,21.0,17.1,78.0,101325,0,0,0,0,0,0,0,0,0,0,0,11.0,0,0,9999,77777,9,999999999,0,0,0,99,0.2,0,0
2023,3,26,4,60,9,23.6,16.8,66.0,101325,0,0,0,0,0,0,0,0,0,0,0,10.0,0,0,9999,77777,9,999999999,0,0,0,99,0.2,0,0
2023,3,26,5,60,9,26.4,18.0,60.0,101325,0,0,0,0,0,0,0,0,0,0,0,8.7,0,0,9999,77777,9,999999999,0,0,0,99,0.2,0,0
2023,3,26,6,60,9,28.3,17.5,52.0,101325,0,0,0,0,0,0,0,0,0,0,0,12.1,0,0,9999,77777,9,999999999,0,0,0,99,0.2,0,0
2023,3,26,7,60,9,29.2,17.4,49.0,101325,0,0,0,0,0,0,0,0,0,0,0,14.1,0,0,9999,77777,9,999999999,0,0,0,99,0.2,0,0
2023,3,26,8,60,9,29.6,17.7,49.0,101325,0,0,0,0,0,0,0,0,0,0,0,17.2,0,0,9999,77777,9,999999999,0,0,0,99,0.2,0,0
2023,3,26,9,60,9,29.2,17.6,49.0,101325,0,0,0,0,0,0,0,0,0,0,0,20.4,0,0,9999,77777,9,999999999,0,0,0,99,0.2,0,0
2023,3,26,10,60,9,29.2,16.6,47.0,101325,0,0,0,0,0,0,0,0,0,0,0,20.5,0,0,9999,77777,9,999999999,0,0,0,99,0.2,0,0
2023,3,26,11,60,9,28.7,17.1,50.0,101325,0,0,0,0,0,0,0,0,0,0,0,20.8,0,0,9999,77777,9,999999999,0,0,0,99,0.2,0,0
2023,3,26,12,60,9,28.1,17.2,52.0,101325,0,0,0,0,0,0,0,0,0,0,0,20.7,0,0,9999,77777,9,999999999,0,0,0,99,0.2,0,0
2023,3,26,13,60,9,27.4,17.6,55.0,101325,0,0,0,0,0,0,0,0,0,0,0,18.3,0,0,9999,77777,9,999999999,0,0,0,99,0.2,0,0
2023,3,26,14,60,9,26.3,18.6,62.0,101325,0,0,0,0,0,0,0,0,0,0,0,17.7,0,0,9999,77777,9,999999999,0,0,0,99,0.2,0,0
2023,3,26,15,60,9,25.4,19.4,69.0,101325,0,0,0,0,0,0,0,0,0,0,0,14.1,0,0,9999,77777,9,999999999,0,0,0,99,0.2,0,0
2023,3,26,16,60,9,24.9,19.4,72.0,101325,0,0,0,0,0,0,0,0,0,0,0,12.5,0,0,9999,77777,9,999999999,0,0,0,99,0.2,0,0
2023,3,26,17,60,9,24.5,19.5,74.0,101325,0,0,0,0,0,0,0,0,0,0,0,10.9,0,0,9999,77777,9,999999999,0,0,0,99,0.2,0,0
2023,3,26,18,60,9,24.1,19.7,77.0,101325,0,0,0,0,0,0,0,0,0,0,0,9.0,0,0,9999,77777,9,999999999,0,0,0,99,0.2,0,0
2023,3,26,19,60,9,22.9,20.3,85.0,101325,0,0,0,0,0,0,0,0,0,0,0,6.5,0,0,9999,77777,9,999999999,0,0,0,99,0.2,0,0
2023,3,26,20,60,9,22.2,20.7,91.0,101325,0,0,0,0,0,0,0,0,0,0,0,5.7,0,0,9999,77777,9,999999999,0,0,0,99,0.2,0,0
2023,3,26,21,60,9,21.9,20.8,93.0,101325,0,0,0,0,0,0,0,0,0,0,0,5.6,0,0,9999,77777,9,999999999,0,0,0,99,0.2,0,0
2023,3,26,22,60,9,21.6,20.6,94.0,101325,0,0,0,0,0,0,0,0,0,0,0,5.0,0,0,9999,77777,9,999999999,0,0,0,99,0.2,0,0
2023,3,26,23,60,9,21.3,20.3,94.0,101325,0,0,0,0,0,0,0,0,0,0,0,5.6,0,0,9999,77777,9,999999999,0,0,0,99,0.2,0,0
2023,3,26,24,60,9,20.9,19.9,94.0,101325,0,0,0,0,0,0,0,0,0,0,0,6.2,0,0,9999,77777,9,999999999,0,0,0,99,0.2,0,0
2023,3,27,1,60,9,21.8,20.3,91.0,101325,0,0,0,0,0,0,0,0,0,0,0,7.0,0,0,9999,77777,9,999999999,0,0,0,99,0.2,0,0
2023,3,27,2,60,9,21.4,19.9,91.0,101325,0,0,0,0,0,0,0,0,0,0,0,7.6,0,0,9999,77777,9,999999999,0,0,0,99,0.2,0,0
2023,3,27,3,60,9,22.3,19.9,86.0,101325,0,0,0,0,0,0,0,0,0,0,0,8.8,0,0,9999,77777,9,999999999,0,0,0,99,0.2,0,0
2023,3,27,4,60,9,24.8,20.1,75.0,101325,0,0,0,0,0,0,0,0,0,0,0,7.7,0,0,9999,77777,9,999999999,0,0,0,99,0.2,0,0
2023,3,27,5,60,9,26.8,20.0,66.0,101325,0,0,0,0,0,0,0,0,0,0,0,4.0,0,0,9999,77777,9,999999999,0,0,0,99,0.2,0,0
2023,3,27,6,60,9,28.5,19.3,57.0,101325,0,0,0,0,0,0,0,0,0,0,0,6.4,0,0,9999,77777,9,999999999,0,0,0,99,0.2,0,0
2023,3,27,7,60,9,29.5,19.4,55.0,101325,0,0,0,0,0,0,0,0,0,0,0,9.6,0,0,9999,77777,9,999999999,0,0,0,99,0.2,0,0
2023,3,27,8,60,9,29.8,19.6,54.0,101325,0,0,0,0,0,0,0,0,0,0,0,13.5,0,0,9999,77777,9,999999999,0,0,0,99,0.2,0,0
2023,3,27,9,60,9,29.6,19.4,54.0,101325,0,0,0,0,0,0,0,0,0,0,0,17.5,0,0,9999,77777,9,999999999,0,0,0,99,0.2,0,0
2023,3,27,10,60,9,29.5,19.2,54.0,101325,0,0,0,0,0,0,0,0,0,0,0,18.9,0,0,9999,77777,9,999999999,0,0,0,99,0.2,0,0
2023,3,27,11,60,9,29.3,19.5,56.0,101325,0,0,0,0,0,0,0,0,0,0,0,19.4,0,0,9999,77777,9,999999999,0,0,0,99,0.2,0,0
2023,3,27,12,60,9,28.7,19.8,59.0,101325,0,0,0,0,0,0,0,0,0,0,0,19.7,0,0,9999,77777,9,999999999,0,0,0,99,0.2,0,0
2023,3,27,13,60,9,27.4,20.7,67.0,101325,0,0,0,0,0,0,0,0,0,0,0,19.9,0,0,9999,77777,9,999999999,0,0,0,99,0.2,0,0
2023,3,27,14,60,9,26.5,21.2,73.0,101325,0,0,0,0,0,0,0,0,0,0,0,19.5,0,0,9999,77777,9,999999999,0,0,0,99,0.2,0,0
2023,3,27,15,60,9,25.8,21.7,78.0,101325,0,0,0,0,0,0,0,0,0,0,0,17.9,0,0,9999,77777,9,999999999,0,0,0,99,0.2,0,0
2023,3,27,16,60,9,25.5,21.8,80.0,101325,0,0,0,0,0,0,0,0,0,0,0,16.3,0,0,9999,77777,9,999999999,0,0,0,99,0.2,0,0
2023,3,27,17,60,9,24.8,21.8,84.0,101325,0,0,0,0,0,0,0,0,0,0,0,6.6,0,0,9999,77777,9,999999999,0,0,0,99,0.2,0,0
2023,3,27,18,60,9,25.2,22.0,83.0,101325,0,0,0,0,0,0,0,0,0,0,0,4.1,0,0,9999,77777,9,999999999,0,0,0,99,0.2,0,0
2023,3,27,19,60,9,23.5,22.1,92.0,101325,0,0,0,0,0,0,0,0,0,0,0,4.8,0,0,9999,77777,9,999999999,0,0,0,99,0.2,0,0
2023,3,27,20,60,9,22.7,22.1,96.0,101325,0,0,0,0,0,0,0,0,0,0,0,5.4,0,0,9999,77777,9,999999999,0,0,0,99,0.2,0,0
2023,3,27,21,60,9,22.4,22.1,98.0,101325,0,0,0,0,0,0,0,0,0,0,0,5.4,0,0,9999,77777,9,999999999,0,0,0,99,0.2,0,0
2023,3,27,22,60,9,22.5,22.3,99.0,101325,0,0,0,0,0,0,0,0,0,0,0,4.5,0,0,9999,77777,9,999999999,0,0,0,99,0.2,0,0
2023,3,27,23,60,9,22.8,22.6,99.0,101325,0,0,0,0,0,0,0,0,0,0,0,5.0,0,0,9999,77777,9,999999999,0,0,0,99,0.2,0,0
2023,3,27,24,60,9,22.6,22.3,98.0,101325,0,0,0,0,0,0,0,0,0,0,0,5.6,0,0,9999,77777,9,999999999,0,0,0,99,0.2,0,0
2023,3,28,1,60,9,23.3,22.9,98.0,101325,0,0,0,0,0,0,0,0,0,0,0,6.4,0,0,9999,77777,9,999999999,0,0,0,99,0.2,0,0
2023,3,28,2,60,9,23.0,22.8,99.0,101325,0,0,0,0,0,0,0,0,0,0,0,6.9,0,0,9999,77777,9,999999999,0,0,0,99,0.2,0,0
2023,3,28,3,60,9,23.0,22.6,98.0,101325,0,0,0,0,0,0,0,0,0,0,0,8.9,0,0,9999,77777,9,999999999,0,0,0,99,0.2,0,0
2023,3,28,4,60,9,24.4,22.3,88.0,101325,0,0,0,0,0,0,0,0,0,0,0,8.4,0,0,9999,77777,9,999999999,0,0,0,99,0.2,0,0
2023,3,28,5,60,9,26.9,21.0,70.0,101325,0,0,0,0,0,0,0,0,0,0,0,5.2,0,0,9999,77777,9,999999999,0,0,0,99,0.2,0,0
2023,3,28,6,60,9,28.8,19.2,56.0,101325,0,0,0,0,0,0,0,0,0,0,0,3.3,0,0,9999,77777,9,999999999,0,0,0,99,0.2,0,0
2023,3,28,7,60,9,29.9,19.3,53.0,101325,0,0,0,0,0,0,0,0,0,0,0,9.8,0,0,9999,77777,9,999999999,0,0,0,99,0.2,0,0
2023,3,28,8,60,9,29.8,20.2,56.0,101325,0,0,0,0,0,0,0,0,0,0,0,15.1,0,0,9999,77777,9,999999999,0,0,0,99,0.2,0,0
2023,3,28,9,60,9,29.9,19.1,53.0,101325,0,0,0,0,0,0,0,0,0,0,0,17.8,0,0,9999,77777,9,999999999,0,0,0,99,0.2,0,0
2023,3,28,10,60,9,29.9,19.1,53.0,101325,0,0,0,0,0,0,0,0,0,0,0,19.4,0,0,9999,77777,9,999999999,0,0,0,99,0.2,0,0
2023,3,28,11,60,9,29.4,19.4,55.0,101325,0,0,0,0,0,0,0,0,0,0,0,19.7,0,0,9999,77777,9,999999999,0,0,0,99,0.2,0,0
2023,3,28,12,60,9,28.7,19.3,57.0,101325,0,0,0,0,0,0,0,0,0,0,0,19.8,0,0,9999,77777,9,999999999,0,0,0,99,0.2,0,0
2023,3,28,13,60,9,27.9,19.4,60.0,101325,0,0,0,0,0,0,0,0,0,0,0,19.2,0,0,9999,77777,9,999999999,0,0,0,99,0.2,0,0
2023,3,28,14,60,9,26.8,20.0,66.0,101325,0,0,0,0,0,0,0,0,0,0,0,17.8,0,0,9999,77777,9,999999999,0,0,0,99,0.2,0,0
2023,3,28,15,60,9,26.0,20.7,73.0,101325,0,0,0,0,0,0,0,0,0,0,0,14.3,0,0,9999,77777,9,999999999,0,0,0,99,0.2,0,0
2023,3,28,16,60,9,25.5,20.9,76.0,101325,0,0,0,0,0,0,0,0,0,0,0,11.1,0,0,9999,77777,9,999999999,0,0,0,99,0.2,0,0
2023,3,28,17,60,9,24.8,21.3,81.0,101325,0,0,0,0,0,0,0,0,0,0,0,6.9,0,0,9999,77777,9,999999999,0,0,0,99,0.2,0,0
2023,3,28,18,60,9,23.4,21.7,90.0,101325,0,0,0,0,0,0,0,0,0,0,0,6.7,0,0,9999,77777,9,999999999,0,0,0,99,0.2,0,0
2023,3,28,19,60,9,22.8,21.6,93.0,101325,0,0,0,0,0,0,0,0,0,0,0,5.9,0,0,9999,77777,9,999999999,0,0,0,99,0.2,0,0
2023,3,28,20,60,9,23.4,22.3,94.0,101325,0,0,0,0,0,0,0,0,0,0,0,4.6,0,0,9999,77777,9,999999999,0,0,0,99,0.2,0,0
2023,3,28,21,60,9,22.1,21.9,98.0,101325,0,0,0,0,0,0,0,0,0,0,0,5.7,0,0,9999,77777,9,999999999,0,0,0,99,0.2,0,0
2023,3,28,22,60,9,21.9,21.7,99.0,101325,0,0,0,0,0,0,0,0,0,0,0,6.5,0,0,9999,77777,9,999999999,0,0,0,99,0.2,0,0
2023,3,28,23,60,9,22.0,21.8,99.0,101325,0,0,0,0,0,0,0,0,0,0,0,5.9,0,0,9999,77777,9,999999999,0,0,0,99,0.2,0,0
2023,3,28,24,60,9,22.1,21.9,98.0,101325,0,0,0,0,0,0,0,0,0,0,0,5.0,0,0,9999,77777,9,999999999,0,0,0,99,0.2,0,0
2023,3,29,1,60,9,22.4,22.3,99.0,101325,0,0,0,0,0,0,0,0,0,0,0,4.8,0,0,9999,77777,9,999999999,0,0,0,99,0.2,0,0
2023,3,29,2,60,9,22.7,22.3,98.0,101325,0,0,0,0,0,0,0,0,0,0,0,4.5,0,0,9999,77777,9,999999999,0,0,0,99,0.2,0,0
2023,3,29,3,60,9,23.2,22.8,98.0,101325,0,0,0,0,0,0,0,0,0,0,0,7.2,0,0,9999,77777,9,999999999,0,0,0,99,0.2,0,0
2023,3,29,4,60,9,24.7,22.7,89.0,101325,0,0,0,0,0,0,0,0,0,0,0,8.1,0,0,9999,77777,9,999999999,0,0,0,99,0.2,0,0
2023,3,29,5,60,9,26.9,22.0,75.0,101325,0,0,0,0,0,0,0,0,0,0,0,5.9,0,0,9999,77777,9,999999999,0,0,0,99,0.2,0,0
2023,3,29,6,60,9,28.6,20.9,63.0,101325,0,0,0,0,0,0,0,0,0,0,0,8.4,0,0,9999,77777,9,999999999,0,0,0,99,0.2,0,0
2023,3,29,7,60,9,29.7,20.2,57.0,101325,0,0,0,0,0,0,0,0,0,0,0,11.8,0,0,9999,77777,9,999999999,0,0,0,99,0.2,0,0
2023,3,29,8,60,9,29.9,19.9,55.0,101325,0,0,0,0,0,0,0,0,0,0,0,15.8,0,0,9999,77777,9,999999999,0,0,0,99,0.2,0,0
2023,3,29,9,60,9,29.9,18.7,51.0,101325,0,0,0,0,0,0,0,0,0,0,0,16.8,0,0,9999,77777,9,999999999,0,0,0,99,0.2,0,0
2023,3,29,10,60,9,29.6,19.3,54.0,101325,0,0,0,0,0,0,0,0,0,0,0,17.6,0,0,9999,77777,9,999999999,0,0,0,99,0.2,0,0
2023,3,29,11,60,9,29.2,19.5,56.0,101325,0,0,0,0,0,0,0,0,0,0,0,16.8,0,0,9999,77777,9,999999999,0,0,0,99,0.2,0,0
2023,3,29,12,60,9,28.4,19.8,60.0,101325,0,0,0,0,0,0,0,0,0,0,0,16.5,0,0,9999,77777,9,999999999,0,0,0,99,0.2,0,0
2023,3,29,13,60,9,27.5,20.7,66.0,101325,0,0,0,0,0,0,0,0,0,0,0,16.8,0,0,9999,77777,9,999999999,0,0,0,99,0.2,0,0
2023,3,29,14,60,9,26.4,21.3,74.0,101325,0,0,0,0,0,0,0,0,0,0,0,16.3,0,0,9999,77777,9,999999999,0,0,0,99,0.2,0,0
2023,3,29,15,60,9,25.7,21.6,78.0,101325,0,0,0,0,0,0,0,0,0,0,0,12.5,0,0,9999,77777,9,999999999,0,0,0,99,0.2,0,0
2023,3,29,16,60,9,25.3,21.8,81.0,101325,0,0,0,0,0,0,0,0,0,0,0,9.8,0,0,9999,77777,9,999999999,0,0,0,99,0.2,0,0
2023,3,29,17,60,9,24.5,21.9,85.0,101325,0,0,0,0,0,0,0,0,0,0,0,5.1,0,0,9999,77777,9,999999999,0,0,0,99,0.2,0,0
2023,3,29,18,60,9,24.2,22.0,88.0,101325,0,0,0,0,0,0,0,0,0,0,0,5.1,0,0,9999,77777,9,999999999,0,0,0,99,0.2,0,0
2023,3,29,19,60,9,24.7,22.3,86.0,101325,0,0,0,0,0,0,0,0,0,0,0,2.2,0,0,9999,77777,9,999999999,0,0,0,99,0.2,0,0
2023,3,29,20,60,9,24.5,22.4,88.0,101325,0,0,0,0,0,0,0,0,0,0,0,2.2,0,0,9999,77777,9,999999999,0,0,0,99,0.2,0,0
2023,3,29,21,60,9,24.1,22.7,92.0,101325,0,0,0,0,0,0,0,0,0,0,0,2.0,0,0,9999,77777,9,999999999,0,0,0,99,0.2,0,0
2023,3,29,22,60,9,23.8,22.8,94.0,101325,0,0,0,0,0,0,0,0,0,0,0,3.3,0,0,9999,77777,9,999999999,0,0,0,99,0.2,0,0
2023,3,29,23,60,9,23.6,22.9,96.0,101325,0,0,0,0,0,0,0,0,0,0,0,2.1,0,0,9999,77777,9,999999999,0,0,0,99,0.2,0,0
2023,3,29,24,60,9,23.3,23.0,98.0,101325,0,0,0,0,0,0,0,0,0,0,0,0.8,0,0,9999,77777,9,999999999,0,0,0,99,0.2,0,0
2023,3,30,1,60,9,23.8,22.5,92.0,101325,0,0,0,0,0,0,0,0,0,0,0,2.0,0,0,9999,77777,9,999999999,0,0,0,99,0.2,0,0
2023,3,30,2,60,9,22.7,22.2,97.0,101325,0,0,0,0,0,0,0,0,0,0,0,3.4,0,0,9999,77777,9,999999999,0,0,0,99,0.2,0,0
2023,3,30,3,60,9,23.9,22.8,94.0,101325,0,0,0,0,0,0,0,0,0,0,0,2.9,0,0,9999,77777,9,999999999,0,0,0,99,0.2,0,0
2023,3,30,4,60,9,25.4,22.4,83.0,101325,0,0,0,0,0,0,0,0,0,0,0,0.7,0,0,9999,77777,9,999999999,0,0,0,99,0.2,0,0
2023,3,30,5,60,9,27.1,20.7,68.0,101325,0,0,0,0,0,0,0,0,0,0,0,7.6,0,0,9999,77777,9,999999999,0,0,0,99,0.2,0,0
2023,3,30,6,60,9,28.4,19.7,59.0,101325,0,0,0,0,0,0,0,0,0,0,0,9.8,0,0,9999,77777,9,999999999,0,0,0,99,0.2,0,0
2023,3,30,7,60,9,29.0,19.5,56.0,101325,0,0,0,0,0,0,0,0,0,0,0,11.2,0,0,9999,77777,9,999999999,0,0,0,99,0.2,0,0
2023,3,30,8,60,9,29.5,19.4,55.0,101325,0,0,0,0,0,0,0,0,0,0,0,12.8,0,0,9999,77777,9,999999999,0,0,0,99,0.2,0,0
2023,3,30,9,60,9,29.5,19.0,53.0,101325,0,0,0,0,0,0,0,0,0,0,0,15.6,0,0,9999,77777,9,999999999,0,0,0,99,0.2,0,0
2023,3,30,10,60,9,29.3,19.1,54.0,101325,0,0,0,0,0,0,0,0,0,0,0,14.2,0,0,9999,77777,9,999999999,0,0,0,99,0.2,0,0
2023,3,30,11,60,9,29.0,19.2,56.0,101325,0,0,0,0,0,0,0,0,0,0,0,13.7,0,0,9999,77777,9,999999999,0,0,0,99,0.2,0,0
2023,3,30,12,60,9,28.3,19.4,59.0,101325,0,0,0,0,0,0,0,0,0,0,0,15.3,0,0,9999,77777,9,999999999,0,0,0,99,0.2,0,0
2023,3,30,13,60,9,27.5,19.4,62.0,101325,0,0,0,0,0,0,0,0,0,0,0,15.1,0,0,9999,77777,9,999999999,0,0,0,99,0.2,0,0
2023,3,30,14,60,9,26.8,19.5,65.0,101325,0,0,0,0,0,0,0,0,0,0,0,13.0,0,0,9999,77777,9,999999999,0,0,0,99,0.2,0,0
2023,3,30,15,60,9,26.2,20.2,69.0,101325,0,0,0,0,0,0,0,0,0,0,0,11.4,0,0,9999,77777,9,999999999,0,0,0,99,0.2,0,0
2023,3,30,16,60,9,25.8,20.7,73.0,101325,0,0,0,0,0,0,0,0,0,0,0,8.7,0,0,9999,77777,9,999999999,0,0,0,99,0.2,0,0
2023,3,30,17,60,9,25.5,20.8,75.0,101325,0,0,0,0,0,0,0,0,0,0,0,7.5,0,0,9999,77777,9,999999999,0,0,0,99,0.2,0,0
2023,3,30,18,60,9,25.2,20.9,77.0,101325,0,0,0,0,0,0,0,0,0,0,0,5.4,0,0,9999,77777,9,999999999,0,0,0,99,0.2,0,0
2023,3,30,19,60,9,25.1,21.4,80.0,101325,0,0,0,0,0,0,0,0,0,0,0,4.8,0,0,9999,77777,9,999999999,0,0,0,99,0.2,0,0
2023,3,30,20,60,9,24.5,21.7,84.0,101325,0,0,0,0,0,0,0,0,0,0,0,4.6,0,0,9999,77777,9,999999999,0,0,0,99,0.2,0,0
2023,3,30,21,60,9,25.0,21.7,82.0,101325,0,0,0,0,0,0,0,0,0,0,0,4.8,0,0,9999,77777,9,999999999,0,0,0,99,0.2,0,0
2023,3,30,22,60,9,24.8,21.9,84.0,101325,0,0,0,0,0,0,0,0,0,0,0,3.9,0,0,9999,77777,9,999999999,0,0,0,99,0.2,0,0
2023,3,30,23,60,9,24.7,22.1,86.0,101325,0,0,0,0,0,0,0,0,0,0,0,3.5,0,0,9999,77777,9,999999999,0,0,0,99,0.2,0,0
2023,3,30,24,60,9,24.1,22.2,89.0,101325,0,0,0,0,0,0,0,0,0,0,0,4.4,0,0,9999,77777,9,999999999,0,0,0,99,0.2,0,0
2023,3,31,1,60,9,25.0,21.6,82.0,101325,0,0,0,0,0,0,0,0,0,0,0,3.1,0,0,9999,77777,9,999999999,0,0,0,99,0.2,0,0
2023,3,31,2,60,9,24.5,21.2,82.0,101325,0,0,0,0,0,0,0,0,0,0,0,7.5,0,0,9999,77777,9,999999999,0,0,0,99,0.2,0,0
2023,3,31,3,60,9,24.9,21.1,79.0,101325,0,0,0,0,0,0,0,0,0,0,0,5.6,0,0,9999,77777,9,999999999,0,0,0,99,0.2,0,0
2023,3,31,4,60,9,25.8,20.9,74.0,101325,0,0,0,0,0,0,0,0,0,0,0,6.1,0,0,9999,77777,9,999999999,0,0,0,99,0.2,0,0
2023,3,31,5,60,9,27.3,20.7,67.0,101325,0,0,0,0,0,0,0,0,0,0,0,4.7,0,0,9999,77777,9,999999999,0,0,0,99,0.2,0,0
2023,3,31,6,60,9,28.4,20.4,62.0,101325,0,0,0,0,0,0,0,0,0,0,0,9.2,0,0,9999,77777,9,999999999,0,0,0,99,0.2,0,0
2023,3,31,7,60,9,29.1,20.4,59.0,101325,0,0,0,0,0,0,0,0,0,0,0,13.6,0,0,9999,77777,9,999999999,0,0,0,99,0.2,0,0
2023,3,31,8,60,9,29.2,20.5,59.0,101325,0,0,0,0,0,0,0,0,0,0,0,14.8,0,0,9999,77777,9,999999999,0,0,0,99,0.2,0,0
2023,3,31,9,60,9,29.4,20.2,58.0,101325,0,0,0,0,0,0,0,0,0,0,0,14.9,0,0,9999,77777,9,999999999,0,0,0,99,0.2,0,0
2023,3,31,10,60,9,29.2,20.4,59.0,101325,0,0,0,0,0,0,0,0,0,0,0,16.4,0,0,9999,77777,9,999999999,0,0,0,99,0.2,0,0
2023,3,31,11,60,9,28.9,20.4,60.0,101325,0,0,0,0,0,0,0,0,0,0,0,16.5,0,0,9999,77777,9,999999999,0,0,0,99,0.2,0,0
2023,3,31,12,60,9,28.5,20.5,62.0,101325,0,0,0,0,0,0,0,0,0,0,0,16.1,0,0,9999,77777,9,999999999,0,0,0,99,0.2,0,0
2023,3,31,13,60,9,27.7,20.8,66.0,101325,0,0,0,0,0,0,0,0,0,0,0,14.2,0,0,9999,77777,9,999999999,0,0,0,99,0.2,0,0
2023,3,31,14,60,9,26.9,21.2,71.0,101325,0,0,0,0,0,0,0,0,0,0,0,12.2,0,0,9999,77777,9,999999999,0,0,0,99,0.2,0,0
2023,3,31,15,60,9,26.2,21.8,77.0,101325,0,0,0,0,0,0,0,0,0,0,0,7.9,0,0,9999,77777,9,999999999,0,0,0,99,0.2,0,0
2023,3,31,16,60,9,25.8,22.2,81.0,101325,0,0,0,0,0,0,0,0,0,0,0,7.2,0,0,9999,77777,9,999999999,0,0,0,99,0.2,0,0
2023,3,31,17,60,9,25.3,22.4,84.0,101325,0,0,0,0,0,0,0,0,0,0,0,5.9,0,0,9999,77777,9,999999999,0,0,0,99,0.2,0,0
2023,3,31,18,60,9,24.4,22.6,90.0,101325,0,0,0,0,0,0,0,0,0,0,0,5.0,0,0,9999,77777,9,999999999,0,0,0,99,0.2,0,0
2023,3,31,19,60,9,23.7,22.6,94.0,101325,0,0,0,0,0,0,0,0,0,0,0,5.9,0,0,9999,77777,9,999999999,0,0,0,99,0.2,0,0
2023,3,31,20,60,9,23.3,22.3,94.0,101325,0,0,0,0,0,0,0,0,0,0,0,5.9,0,0,9999,77777,9,999999999,0,0,0,99,0.2,0,0
2023,3,31,21,60,9,23.0,22.1,94.0,101325,0,0,0,0,0,0,0,0,0,0,0,6.2,0,0,9999,77777,9,999999999,0,0,0,99,0.2,0,0
2023,3,31,22,60,9,22.7,22.1,96.0,101325,0,0,0,0,0,0,0,0,0,0,0,5.4,0,0,9999,77777,9,999999999,0,0,0,99,0.2,0,0
2023,3,31,23,60,9,23.4,22.9,97.0,101325,0,0,0,0,0,0,0,0,0,0,0,7.3,0,0,9999,77777,9,999999999,0,0,0,99,0.2,0,0
2023,3,31,24,60,9,22.9,22.4,97.0,101325,0,0,0,0,0,0,0,0,0,0,0,7.9,0,0,9999,77777,9,999999999,0,0,0,99,0.2,0,0
2023,4,1,1,60,9,23.0,22.4,96.0,101325,0,0,0,0,0,0,0,0,0,0,0,9.1,0,0,9999,77777,9,999999999,0,0,0,99,0.2,0,0
2023,4,1,2,60,9,22.3,21.4,95.0,101325,0,0,0,0,0,0,0,0,0,0,0,9.4,0,0,9999,77777,9,999999999,0,0,0,99,0.2,0,0
2023,4,1,3,60,9,23.1,20.6,86.0,101325,0,0,0,0,0,0,0,0,0,0,0,10.7,0,0,9999,77777,9,999999999,0,0,0,99,0.2,0,0
2023,4,1,4,60,9,25.4,20.4,74.0,101325,0,0,0,0,0,0,0,0,0,0,0,10.1,0,0,9999,77777,9,999999999,0,0,0,99,0.2,0,0
2023,4,1,5,60,9,27.1,19.0,61.0,101325,0,0,0,0,0,0,0,0,0,0,0,5.9,0,0,9999,77777,9,999999999,0,0,0,99,0.2,0,0
2023,4,1,6,60,9,28.8,17.6,51.0,101325,0,0,0,0,0,0,0,0,0,0,0,2.4,0,0,9999,77777,9,999999999,0,0,0,99,0.2,0,0
2023,4,1,7,60,9,30.0,17.9,48.0,101325,0,0,0,0,0,0,0,0,0,0,0,8.0,0,0,9999,77777,9,999999999,0,0,0,99,0.2,0,0
2023,4,1,8,60,9,29.9,19.9,55.0,101325,0,0,0,0,0,0,0,0,0,0,0,15.9,0,0,9999,77777,9,999999999,0,0,0,99,0.2,0,0
2023,4,1,9,60,9,29.5,19.5,55.0,101325,0,0,0,0,0,0,0,0,0,0,0,20.0,0,0,9999,77777,9,999999999,0,0,0,99,0.2,0,0
2023,4,1,10,60,9,29.5,19.8,56.0,101325,0,0,0,0,0,0,0,0,0,0,0,21.3,0,0,9999,77777,9,999999999,0,0,0,99,0.2,0,0
2023,4,1,11,60,9,29.0,20.0,58.0,101325,0,0,0,0,0,0,0,0,0,0,0,23.2,0,0,9999,77777,9,999999999,0,0,0,99,0.2,0,0
2023,4,1,12,60,9,28.4,20.6,63.0,101325,0,0,0,0,0,0,0,0,0,0,0,23.3,0,0,9999,77777,9,999999999,0,0,0,99,0.2,0,0
2023,4,1,13,60,9,27.5,20.7,66.0,101325,0,0,0,0,0,0,0,0,0,0,0,22.4,0,0,9999,77777,9,999999999,0,0,0,99,0.2,0,0
2023,4,1,14,60,9,26.8,20.9,70.0,101325,0,0,0,0,0,0,0,0,0,0,0,22.7,0,0,9999,77777,9,999999999,0,0,0,99,0.2,0,0
2023,4,1,15,60,9,26.4,20.7,71.0,101325,0,0,0,0,0,0,0,0,0,0,0,17.8,0,0,9999,77777,9,999999999,0,0,0,99,0.2,0,0
2023,4,1,16,60,9,26.0,21.0,74.0,101325,0,0,0,0,0,0,0,0,0,0,0,12.1,0,0,9999,77777,9,999999999,0,0,0,99,0.2,0,0
2023,4,1,17,60,9,24.7,21.5,82.0,101325,0,0,0,0,0,0,0,0,0,0,0,6.2,0,0,9999,77777,9,999999999,0,0,0,99,0.2,0,0
2023,4,1,18,60,9,24.8,21.6,82.0,101325,0,0,0,0,0,0,0,0,0,0,0,3.8,0,0,9999,77777,9,999999999,0,0,0,99,0.2,0,0
2023,4,1,19,60,9,24.5,22.0,86.0,101325,0,0,0,0,0,0,0,0,0,0,0,3.8,0,0,9999,77777,9,999999999,0,0,0,99,0.2,0,0
2023,4,1,20,60,9,24.8,22.3,86.0,101325,0,0,0,0,0,0,0,0,0,0,0,3.4,0,0,9999,77777,9,999999999,0,0,0,99,0.2,0,0
2023,4,1,21,60,9,24.1,22.3,90.0,101325,0,0,0,0,0,0,0,0,0,0,0,3.6,0,0,9999,77777,9,999999999,0,0,0,99,0.2,0,0
2023,4,1,22,60,9,23.1,22.1,94.0,101325,0,0,0,0,0,0,0,0,0,0,0,4.2,0,0,9999,77777,9,999999999,0,0,0,99,0.2,0,0
2023,4,1,23,60,9,22.3,21.9,98.0,101325,0,0,0,0,0,0,0,0,0,0,0,5.2,0,0,9999,77777,9,999999999,0,0,0,99,0.2,0,0
2023,4,1,24,60,9,22.2,22.1,100.0,101325,0,0,0,0,0,0,0,0,0,0,0,5.1,0,0,9999,77777,9,999999999,0,0,0,99,0.2,0,0
2023,4,2,1,60,9,23.2,23.1,99.0,101325,0,0,0,0,0,0,0,0,0,0,0,3.2,0,0,9999,77777,9,999999999,0,0,0,99,0.2,0,0
2023,4,2,2,60,9,23.2,22.8,98.0,101325,0,0,0,0,0,0,0,0,0,0,0,4.6,0,0,9999,77777,9,999999999,0,0,0,99,0.2,0,0
2023,4,2,3,60,9,23.2,22.2,94.0,101325,0,0,0,0,0,0,0,0,0,0,0,7.8,0,0,9999,77777,9,999999999,0,0,0,99,0.2,0,0
2023,4,2,4,60,9,25.4,21.4,79.0,101325,0,0,0,0,0,0,0,0,0,0,0,8.4,0,0,9999,77777,9,999999999,0,0,0,99,0.2,0,0
2023,4,2,5,60,9,27.4,20.9,68.0,101325,0,0,0,0,0,0,0,0,0,0,0,6.3,0,0,9999,77777,9,999999999,0,0,0,99,0.2,0,0
2023,4,2,6,60,9,29.1,19.1,55.0,101325,0,0,0,0,0,0,0,0,0,0,0,8.2,0,0,9999,77777,9,999999999,0,0,0,99,0.2,0,0
2023,4,2,7,60,9,30.0,18.5,50.0,101325,0,0,0,0,0,0,0,0,0,0,0,13.2,0,0,9999,77777,9,999999999,0,0,0,99,0.2,0,0
2023,4,2,8,60,9,30.1,19.0,51.0,101325,0,0,0,0,0,0,0,0,0,0,0,17.6,0,0,9999,77777,9,999999999,0,0,0,99,0.2,0,0
2023,4,2,9,60,9,29.8,19.7,55.0,101325,0,0,0,0,0,0,0,0,0,0,0,21.3,0,0,9999,77777,9,999999999,0,0,0,99,0.2,0,0
2023,4,2,10,60,9,29.7,19.3,53.0,101325,0,0,0,0,0,0,0,0,0,0,0,22.9,0,0,9999,77777,9,999999999,0,0,0,99,0.2,0,0
2023,4,2,11,60,9,29.2,19.9,57.0,101325,0,0,0,0,0,0,0,0,0,0,0,23.8,0,0,9999,77777,9,999999999,0,0,0,99,0.2,0,0
2023,4,2,12,60,9,28.5,20.3,61.0,101325,0,0,0,0,0,0,0,0,0,0,0,23.0,0,0,9999,77777,9,999999999,0,0,0,99,0.2,0,0
2023,4,2,13,60,9,27.6,20.8,66.0,101325,0,0,0,0,0,0,0,0,0,0,0,20.5,0,0,9999,77777,9,999999999,0,0,0,99,0.2,0,0
2023,4,2,14,60,9,26.6,21.0,71.0,101325,0,0,0,0,0,0,0,0,0,0,0,18.5,0,0,9999,77777,9,999999999,0,0,0,99,0.2,0,0
2023,4,2,15,60,9,26.1,21.1,74.0,101325,0,0,0,0,0,0,0,0,0,0,0,15.9,0,0,9999,77777,9,999999999,0,0,0,99,0.2,0,0
2023,4,2,16,60,9,25.8,21.5,77.0,101325,0,0,0,0,0,0,0,0,0,0,0,13.0,0,0,9999,77777,9,999999999,0,0,0,99,0.2,0,0
2023,4,2,17,60,9,25.3,21.7,80.0,101325,0,0,0,0,0,0,0,0,0,0,0,7.2,0,0,9999,77777,9,999999999,0,0,0,99,0.2,0,0
2023,4,2,18,60,9,23.9,22.0,89.0,101325,0,0,0,0,0,0,0,0,0,0,0,6.0,0,0,9999,77777,9,999999999,0,0,0,99,0.2,0,0
2023,4,2,19,60,9,23.5,22.0,91.0,101325,0,0,0,0,0,0,0,0,0,0,0,6.1,0,0,9999,77777,9,999999999,0,0,0,99,0.2,0,0
2023,4,2,20,60,9,23.1,21.5,91.0,101325,0,0,0,0,0,0,0,0,0,0,0,6.5,0,0,9999,77777,9,999999999,0,0,0,99,0.2,0,0
2023,4,2,21,60,9,23.0,21.5,91.0,101325,0,0,0,0,0,0,0,0,0,0,0,6.4,0,0,9999,77777,9,999999999,0,0,0,99,0.2,0,0
2023,4,2,22,60,9,22.8,21.4,92.0,101325,0,0,0,0,0,0,0,0,0,0,0,6.4,0,0,9999,77777,9,999999999,0,0,0,99,0.2,0,0
2023,4,2,23,60,9,22.7,21.6,93.0,101325,0,0,0,0,0,0,0,0,0,0,0,5.9,0,0,9999,77777,9,999999999,0,0,0,99,0.2,0,0
2023,4,2,24,60,9,22.9,22.1,95.0,101325,0,0,0,0,0,0,0,0,0,0,0,4.1,0,0,9999,77777,9,999999999,0,0,0,99,0.2,0,0
2023,4,3,1,60,9,23.7,22.8,95.0,101325,0,0,0,0,0,0,0,0,0,0,0,4.0,0,0,9999,77777,9,999999999,0,0,0,99,0.2,0,0
2023,4,3,2,60,9,23.5,23.0,97.0,101325,0,0,0,0,0,0,0,0,0,0,0,3.4,0,0,9999,77777,9,999999999,0,0,0,99,0.2,0,0
2023,4,3,3,60,9,24.5,23.1,92.0,101325,0,0,0,0,0,0,0,0,0,0,0,5.7,0,0,9999,77777,9,999999999,0,0,0,99,0.2,0,0
2023,4,3,4,60,9,26.1,22.2,79.0,101325,0,0,0,0,0,0,0,0,0,0,0,5.9,0,0,9999,77777,9,999999999,0,0,0,99,0.2,0,0
2023,4,3,5,60,9,27.6,21.2,68.0,101325,0,0,0,0,0,0,0,0,0,0,0,3.3,0,0,9999,77777,9,999999999,0,0,0,99,0.2,0,0
2023,4,3,6,60,9,29.0,20.6,61.0,101325,0,0,0,0,0,0,0,0,0,0,0,4.8,0,0,9999,77777,9,999999999,0,0,0,99,0.2,0,0
2023,4,3,7,60,9,30.1,19.9,54.0,101325,0,0,0,0,0,0,0,0,0,0,0,10.0,0,0,9999,77777,9,999999999,0,0,0,99,0.2,0,0
2023,4,3,8,60,9,30.0,20.6,57.0,101325,0,0,0,0,0,0,0,0,0,0,0,17.1,0,0,9999,77777,9,999999999,0,0,0,99,0.2,0,0
2023,4,3,9,60,9,29.8,19.2,53.0,101325,0,0,0,0,0,0,0,0,0,0,0,20.6,0,0,9999,77777,9,999999999,0,0,0,99,0.2,0,0
2023,4,3,10,60,9,29.6,20.5,58.0,101325,0,0,0,0,0,0,0,0,0,0,0,22.6,0,0,9999,77777,9,999999999,0,0,0,99,0.2,0,0
2023,4,3,11,60,9,29.1,20.5,60.0,101325,0,0,0,0,0,0,0,0,0,0,0,23.4,0,0,9999,77777,9,999999999,0,0,0,99,0.2,0,0
2023,4,3,12,60,9,28.5,20.4,61.0,101325,0,0,0,0,0,0,0,0,0,0,0,22.5,0,0,9999,77777,9,999999999,0,0,0,99,0.2,0,0
2023,4,3,13,60,9,27.8,21.0,67.0,101325,0,0,0,0,0,0,0,0,0,0,0,21.4,0,0,9999,77777,9,999999999,0,0,0,99,0.2,0,0
2023,4,3,14,60,9,26.7,21.3,72.0,101325,0,0,0,0,0,0,0,0,0,0,0,20.6,0,0,9999,77777,9,999999999,0,0,0,99,0.2,0,0
2023,4,3,15,60,9,26.2,21.6,76.0,101325,0,0,0,0,0,0,0,0,0,0,0,16.6,0,0,9999,77777,9,999999999,0,0,0,99,0.2,0,0
2023,4,3,16,60,9,26.0,22.0,78.0,101325,0,0,0,0,0,0,0,0,0,0,0,13.3,0,0,9999,77777,9,999999999,0,0,0,99,0.2,0,0
2023,4,3,17,60,9,25.5,22.3,82.0,101325,0,0,0,0,0,0,0,0,0,0,0,7.2,0,0,9999,77777,9,999999999,0,0,0,99,0.2,0,0
2023,4,3,18,60,9,24.6,22.4,88.0,101325,0,0,0,0,0,0,0,0,0,0,0,4.5,0,0,9999,77777,9,999999999,0,0,0,99,0.2,0,0
2023,4,3,19,60,9,25.5,22.2,82.0,101325,0,0,0,0,0,0,0,0,0,0,0,2.1,0,0,9999,77777,9,999999999,0,0,0,99,0.2,0,0
2023,4,3,20,60,9,23.4,22.2,93.0,101325,0,0,0,0,0,0,0,0,0,0,0,5.7,0,0,9999,77777,9,999999999,0,0,0,99,0.2,0,0
2023,4,3,21,60,9,23.6,22.4,93.0,101325,0,0,0,0,0,0,0,0,0,0,0,5.0,0,0,9999,77777,9,999999999,0,0,0,99,0.2,0,0
2023,4,3,22,60,9,23.6,22.9,96.0,101325,0,0,0,0,0,0,0,0,0,0,0,4.7,0,0,9999,77777,9,999999999,0,0,0,99,0.2,0,0
2023,4,3,23,60,9,23.4,23.0,98.0,101325,0,0,0,0,0,0,0,0,0,0,0,5.1,0,0,9999,77777,9,999999999,0,0,0,99,0.2,0,0
2023,4,3,24,60,9,23.1,22.7,98.0,101325,0,0,0,0,0,0,0,0,0,0,0,6.4,0,0,9999,77777,9,999999999,0,0,0,99,0.2,0,0
2023,4,4,1,60,9,23.7,23.3,98.0,101325,0,0,0,0,0,0,0,0,0,0,0,7.4,0,0,9999,77777,9,999999999,0,0,0,99,0.2,0,0
2023,4,4,2,60,9,23.3,23.0,98.0,101325,0,0,0,0,0,0,0,0,0,0,0,6.3,0,0,9999,77777,9,999999999,0,0,0,99,0.2,0,0
2023,4,4,3,60,9,23.9,23.0,95.0,101325,0,0,0,0,0,0,0,0,0,0,0,8.1,0,0,9999,77777,9,999999999,0,0,0,99,0.2,0,0
2023,4,4,4,60,9,25.9,22.7,83.0,101325,0,0,0,0,0,0,0,0,0,0,0,6.6,0,0,9999,77777,9,999999999,0,0,0,99,0.2,0,0
2023,4,4,5,60,9,27.9,21.8,69.0,101325,0,0,0,0,0,0,0,0,0,0,0,4.3,0,0,9999,77777,9,999999999,0,0,0,99,0.2,0,0
2023,4,4,6,60,9,29.8,21.3,60.0,101325,0,0,0,0,0,0,0,0,0,0,0,6.1,0,0,9999,77777,9,999999999,0,0,0,99,0.2,0,0
2023,4,4,7,60,9,30.8,21.8,59.0,101325,0,0,0,0,0,0,0,0,0,0,0,11.8,0,0,9999,77777,9,999999999,0,0,0,99,0.2,0,0
2023,4,4,8,60,9,30.7,21.6,58.0,101325,0,0,0,0,0,0,0,0,0,0,0,17.4,0,0,9999,77777,9,999999999,0,0,0,99,0.2,0,0
2023,4,4,9,60,9,30.8,21.0,56.0,101325,0,0,0,0,0,0,0,0,0,0,0,21.9,0,0,9999,77777,9,999999999,0,0,0,99,0.2,0,0
2023,4,4,10,60,9,30.6,20.7,55.0,101325,0,0,0,0,0,0,0,0,0,0,0,22.8,0,0,9999,77777,9,999999999,0,0,0,99,0.2,0,0
2023,4,4,11,60,9,30.0,21.2,59.0,101325,0,0,0,0,0,0,0,0,0,0,0,23.7,0,0,9999,77777,9,999999999,0,0,0,99,0.2,0,0
2023,4,4,12,60,9,29.3,21.1,62.0,101325,0,0,0,0,0,0,0,0,0,0,0,22.5,0,0,9999,77777,9,999999999,0,0,0,99,0.2,0,0
2023,4,4,13,60,9,27.9,22.6,73.0,101325,0,0,0,0,0,0,0,0,0,0,0,22.7,0,0,9999,77777,9,999999999,0,0,0,99,0.2,0,0
2023,4,4,14,60,9,27.0,22.6,77.0,101325,0,0,0,0,0,0,0,0,0,0,0,21.6,0,0,9999,77777,9,999999999,0,0,0,99,0.2,0,0
2023,4,4,15,60,9,26.5,22.4,78.0,101325,0,0,0,0,0,0,0,0,0,0,0,18.2,0,0,9999,77777,9,999999999,0,0,0,99,0.2,0,0
2023,4,4,16,60,9,26.2,22.8,81.0,101325,0,0,0,0,0,0,0,0,0,0,0,15.5,0,0,9999,77777,9,999999999,0,0,0,99,0.2,0,0
2023,4,4,17,60,9,25.8,23.2,86.0,101325,0,0,0,0,0,0,0,0,0,0,0,12.4,0,0,9999,77777,9,999999999,0,0,0,99,0.2,0,0
2023,4,4,18,60,9,24.2,23.3,95.0,101325,0,0,0,0,0,0,0,0,0,0,0,7.0,0,0,9999,77777,9,999999999,0,0,0,99,0.2,0,0
2023,4,4,19,60,9,25.1,23.5,91.0,101325,0,0,0,0,0,0,0,0,0,0,0,4.4,0,0,9999,77777,9,999999999,0,0,0,99,0.2,0,0
2023,4,4,20,60,9,23.8,23.0,95.0,101325,0,0,0,0,0,0,0,0,0,0,0,5.7,0,0,9999,77777,9,999999999,0,0,0,99,0.2,0,0
2023,4,4,21,60,9,23.4,23.0,98.0,101325,0,0,0,0,0,0,0,0,0,0,0,5.5,0,0,9999,77777,9,999999999,0,0,0,99,0.2,0,0
2023,4,4,22,60,9,23.3,23.0,98.0,101325,0,0,0,0,0,0,0,0,0,0,0,5.0,0,0,9999,77777,9,999999999,0,0,0,99,0.2,0,0
2023,4,4,23,60,9,22.5,22.2,98.0,101325,0,0,0,0,0,0,0,0,0,0,0,6.4,0,0,9999,77777,9,999999999,0,0,0,99,0.2,0,0
2023,4,4,24,60,9,21.9,21.8,99.0,101325,0,0,0,0,0,0,0,0,0,0,0,7.2,0,0,9999,77777,9,999999999,0,0,0,99,0.2,0,0
2023,4,5,1,60,9,23.3,23.1,99.0,101325,0,0,0,0,0,0,0,0,0,0,0,5.1,0,0,9999,77777,9,999999999,0,0,0,99,0.2,0,0
2023,4,5,2,60,9,23.3,22.9,98.0,101325,0,0,0,0,0,0,0,0,0,0,0,2.8,0,0,9999,77777,9,999999999,0,0,0,99,0.2,0,0
2023,4,5,3,60,9,24.2,23.2,94.0,101325,0,0,0,0,0,0,0,0,0,0,0,3.3,0,0,9999,77777,9,999999999,0,0,0,99,0.2,0,0
2023,4,5,4,60,9,25.3,23.5,90.0,101325,0,0,0,0,0,0,0,0,0,0,0,3.1,0,0,9999,77777,9,999999999,0,0,0,99,0.2,0,0
2023,4,5,5,60,9,28.0,23.2,75.0,101325,0,0,0,0,0,0,0,0,0,0,0,4.4,0,0,9999,77777,9,999999999,0,0,0,99,0.2,0,0
2023,4,5,6,60,9,30.0,22.0,62.0,101325,0,0,0,0,0,0,0,0,0,0,0,7.8,0,0,9999,77777,9,999999999,0,0,0,99,0.2,0,0
2023,4,5,7,60,9,30.8,22.4,61.0,101325,0,0,0,0,0,0,0,0,0,0,0,12.2,0,0,9999,77777,9,999999999,0,0,0,99,0.2,0,0
2023,4,5,8,60,9,30.9,22.8,62.0,101325,0,0,0,0,0,0,0,0,0,0,0,17.0,0,0,9999,77777,9,999999999,0,0,0,99,0.2,0,0
2023,4,5,9,60,9,31.0,22.4,60.0,101325,0,0,0,0,0,0,0,0,0,0,0,20.0,0,0,9999,77777,9,999999999,0,0,0,99,0.2,0,0
2023,4,5,10,60,9,30.5,22.9,64.0,101325,0,0,0,0,0,0,0,0,0,0,0,22.8,0,0,9999,77777,9,999999999,0,0,0,99,0.2,0,0
2023,4,5,11,60,9,30.4,22.3,62.0,101325,0,0,0,0,0,0,0,0,0,0,0,21.0,0,0,9999,77777,9,999999999,0,0,0,99,0.2,0,0
2023,4,5,12,60,9,29.8,22.4,64.0,101325,0,0,0,0,0,0,0,0,0,0,0,20.5,0,0,9999,77777,9,999999999,0,0,0,99,0.2,0,0
2023,4,5,13,60,9,28.8,23.1,71.0,101325,0,0,0,0,0,0,0,0,0,0,0,19.2,0,0,9999,77777,9,999999999,0,0,0,99,0.2,0,0
2023,4,5,14,60,9,27.6,23.4,78.0,101325,0,0,0,0,0,0,0,0,0,0,0,17.6,0,0,9999,77777,9,999999999,0,0,0,99,0.2,0,0
2023,4,5,15,60,9,26.8,23.8,84.0,101325,0,0,0,0,0,0,0,0,0,0,0,18.6,0,0,9999,77777,9,999999999,0,0,0,99,0.2,0,0
2023,4,5,16,60,9,26.5,23.8,85.0,101325,0,0,0,0,0,0,0,0,0,0,0,17.6,0,0,9999,77777,9,999999999,0,0,0,99,0.2,0,0
2023,4,5,17,60,9,26.3,23.6,85.0,101325,0,0,0,0,0,0,0,0,0,0,0,15.8,0,0,9999,77777,9,999999999,0,0,0,99,0.2,0,0
2023,4,5,18,60,9,25.9,23.8,88.0,101325,0,0,0,0,0,0,0,0,0,0,0,13.5,0,0,9999,77777,9,999999999,0,0,0,99,0.2,0,0
2023,4,5,19,60,9,25.4,24.0,92.0,101325,0,0,0,0,0,0,0,0,0,0,0,8.4,0,0,9999,77777,9,999999999,0,0,0,99,0.2,0,0
2023,4,5,20,60,9,25.0,24.0,94.0,101325,0,0,0,0,0,0,0,0,0,0,0,7.9,0,0,9999,77777,9,999999999,0,0,0,99,0.2,0,0
2023,4,5,21,60,9,24.8,24.0,95.0,101325,0,0,0,0,0,0,0,0,0,0,0,9.4,0,0,9999,77777,9,999999999,0,0,0,99,0.2,0,0
2023,4,5,22,60,9,24.4,23.8,96.0,101325,0,0,0,0,0,0,0,0,0,0,0,9.0,0,0,9999,77777,9,999999999,0,0,0,99,0.2,0,0
2023,4,5,23,60,9,24.0,23.3,96.0,101325,0,0,0,0,0,0,0,0,0,0,0,8.9,0,0,9999,77777,9,999999999,0,0,0,99,0.2,0,0
2023,4,5,24,60,9,23.4,22.7,96.0,101325,0,0,0,0,0,0,0,0,0,0,0,8.9,0,0,9999,77777,9,999999999,0,0,0,99,0.2,0,0
2023,4,6,1,60,9,24.2,23.6,96.0,101325,0,0,0,0,0,0,0,0,0,0,0,9.7,0,0,9999,77777,9,999999999,0,0,0,99,0.2,0,0
2023,4,6,2,60,9,23.9,23.3,97.0,101325,0,0,0,0,0,0,0,0,0,0,0,8.9,0,0,9999,77777,9,999999999,0,0,0,99,0.2,0,0
2023,4,6,3,60,9,24.7,23.2,91.0,101325,0,0,0,0,0,0,0,0,0,0,0,8.2,0,0,9999,77777,9,999999999,0,0,0,99,0.2,0,0
2023,4,6,4,60,9,27.0,22.3,76.0,101325,0,0,0,0,0,0,0,0,0,0,0,8.7,0,0,9999,77777,9,999999999,0,0,0,99,0.2,0,0
2023,4,6,5,60,9,30.0,19.7,54.0,101325,0,0,0,0,0,0,0,0,0,0,0,9.1,0,0,9999,77777,9,999999999,0,0,0,99,0.2,0,0
2023,4,6,6,60,9,32.4,17.0,40.0,101325,0,0,0,0,0,0,0,0,0,0,0,7.4,0,0,9999,77777,9,999999999,0,0,0,99,0.2,0,0
2023,4,6,7,60,9,33.1,18.7,43.0,101325,0,0,0,0,0,0,0,0,0,0,0,10.4,0,0,9999,77777,9,999999999,0,0,0,99,0.2,0,0
2023,4,6,8,60,9,31.9,23.9,63.0,101325,0,0,0,0,0,0,0,0,0,0,0,16.8,0,0,9999,77777,9,999999999,0,0,0,99,0.2,0,0
2023,4,6,9,60,9,31.8,23.7,62.0,101325,0,0,0,0,0,0,0,0,0,0,0,19.8,0,0,9999,77777,9,999999999,0,0,0,99,0.2,0,0
2023,4,6,10,60,9,31.8,22.6,58.0,101325,0,0,0,0,0,0,0,0,0,0,0,21.6,0,0,9999,77777,9,999999999,0,0,0,99,0.2,0,0
2023,4,6,11,60,9,32.1,20.3,50.0,101325,0,0,0,0,0,0,0,0,0,0,0,18.9,0,0,9999,77777,9,999999999,0,0,0,99,0.2,0,0
2023,4,6,12,60,9,31.3,19.9,51.0,101325,0,0,0,0,0,0,0,0,0,0,0,19.6,0,0,9999,77777,9,999999999,0,0,0,99,0.2,0,0
2023,4,6,13,60,9,30.1,21.9,62.0,101325,0,0,0,0,0,0,0,0,0,0,0,16.8,0,0,9999,77777,9,999999999,0,0,0,99,0.2,0,0
2023,4,6,14,60,9,29.0,22.6,69.0,101325,0,0,0,0,0,0,0,0,0,0,0,15.1,0,0,9999,77777,9,999999999,0,0,0,99,0.2,0,0
2023,4,6,15,60,9,28.3,21.3,66.0,101325,0,0,0,0,0,0,0,0,0,0,0,17.1,0,0,9999,77777,9,999999999,0,0,0,99,0.2,0,0
2023,4,6,16,60,9,28.1,21.4,67.0,101325,0,0,0,0,0,0,0,0,0,0,0,16.1,0,0,9999,77777,9,999999999,0,0,0,99,0.2,0,0
2023,4,6,17,60,9,28.0,21.1,66.0,101325,0,0,0,0,0,0,0,0,0,0,0,15.8,0,0,9999,77777,9,999999999,0,0,0,99,0.2,0,0
2023,4,6,18,60,9,27.7,21.4,68.0,101325,0,0,0,0,0,0,0,0,0,0,0,15.8,0,0,9999,77777,9,999999999,0,0,0,99,0.2,0,0
2023,4,6,19,60,9,27.2,22.2,74.0,101325,0,0,0,0,0,0,0,0,0,0,0,12.4,0,0,9999,77777,9,999999999,0,0,0,99,0.2,0,0
2023,4,6,20,60,9,26.5,22.0,77.0,101325,0,0,0,0,0,0,0,0,0,0,0,11.9,0,0,9999,77777,9,999999999,0,0,0,99,0.2,0,0
2023,4,6,21,60,9,26.0,21.8,78.0,101325,0,0,0,0,0,0,0,0,0,0,0,12.8,0,0,9999,77777,9,999999999,0,0,0,99,0.2,0,0
2023,4,6,22,60,9,25.5,21.8,80.0,101325,0,0,0,0,0,0,0,0,0,0,0,11.5,0,0,9999,77777,9,999999999,0,0,0,99,0.2,0,0
2023,4,6,23,60,9,25.3,21.1,77.0,101325,0,0,0,0,0,0,0,0,0,0,0,11.5,0,0,9999,77777,9,999999999,0,0,0,99,0.2,0,0
2023,4,6,24,60,9,25.7,20.2,72.0,101325,0,0,0,0,0,0,0,0,0,0,0,14.4,0,0,9999,77777,9,999999999,0,0,0,99,0.2,0,0
2023,4,7,1,60,9,25.9,20.3,71.0,101325,0,0,0,0,0,0,0,0,0,0,0,14.3,0,0,9999,77777,9,999999999,0,0,0,99,0.2,0,0
2023,4,7,2,60,9,25.9,19.9,70.0,101325,0,0,0,0,0,0,0,0,0,0,0,14.9,0,0,9999,77777,9,999999999,0,0,0,99,0.2,0,0
2023,4,7,3,60,9,26.8,19.5,64.0,101325,0,0,0,0,0,0,0,0,0,0,0,12.4,0,0,9999,77777,9,999999999,0,0,0,99,0.2,0,0
2023,4,7,4,60,9,29.0,18.7,54.0,101325,0,0,0,0,0,0,0,0,0,0,0,9.8,0,0,9999,77777,9,999999999,0,0,0,99,0.2,0,0
2023,4,7,5,60,9,31.8,17.2,42.0,101325,0,0,0,0,0,0,0,0,0,0,0,12.3,0,0,9999,77777,9,999999999,0,0,0,99,0.2,0,0
2023,4,7,6,60,9,33.9,16.6,36.0,101325,0,0,0,0,0,0,0,0,0,0,0,13.5,0,0,9999,77777,9,999999999,0,0,0,99,0.2,0,0
2023,4,7,7,60,9,34.1,19.9,43.0,101325,0,0,0,0,0,0,0,0,0,0,0,16.5,0,0,9999,77777,9,999999999,0,0,0,99,0.2,0,0
2023,4,7,8,60,9,33.4,22.5,53.0,101325,0,0,0,0,0,0,0,0,0,0,0,19.0,0,0,9999,77777,9,999999999,0,0,0,99,0.2,0,0
2023,4,7,9,60,9,33.3,22.1,52.0,101325,0,0,0,0,0,0,0,0,0,0,0,23.2,0,0,9999,77777,9,999999999,0,0,0,99,0.2,0,0
2023,4,7,10,60,9,33.4,20.8,48.0,101325,0,0,0,0,0,0,0,0,0,0,0,22.4,0,0,9999,77777,9,999999999,0,0,0,99,0.2,0,0
2023,4,7,11,60,9,32.0,21.0,52.0,101325,0,0,0,0,0,0,0,0,0,0,0,22.6,0,0,9999,77777,9,999999999,0,0,0,99,0.2,0,0
2023,4,7,12,60,9,31.6,21.1,54.0,101325,0,0,0,0,0,0,0,0,0,0,0,23.1,0,0,9999,77777,9,999999999,0,0,0,99,0.2,0,0
2023,4,7,13,60,9,31.6,20.2,51.0,101325,0,0,0,0,0,0,0,0,0,0,0,20.9,0,0,9999,77777,9,999999999,0,0,0,99,0.2,0,0
2023,4,7,14,60,9,31.2,19.3,49.0,101325,0,0,0,0,0,0,0,0,0,0,0,20.5,0,0,9999,77777,9,999999999,0,0,0,99,0.2,0,0
2023,4,7,15,60,9,30.8,17.9,46.0,101325,0,0,0,0,0,0,0,0,0,0,0,19.7,0,0,9999,77777,9,999999999,0,0,0,99,0.2,0,0
2023,4,7,16,60,9,30.8,16.5,42.0,101325,0,0,0,0,0,0,0,0,0,0,0,15.3,0,0,9999,77777,9,999999999,0,0,0,99,0.2,0,0
2023,4,7,17,60,9,30.5,15.8,41.0,101325,0,0,0,0,0,0,0,0,0,0,0,11.2,0,0,9999,77777,9,999999999,0,0,0,99,0.2,0,0
2023,4,7,18,60,9,29.9,14.9,40.0,101325,0,0,0,0,0,0,0,0,0,0,0,8.9,0,0,9999,77777,9,999999999,0,0,0,99,0.2,0,0
2023,4,7,19,60,9,28.9,14.2,41.0,101325,0,0,0,0,0,0,0,0,0,0,0,8.2,0,0,9999,77777,9,999999999,0,0,0,99,0.2,0,0
2023,4,7,20,60,9,29.0,13.5,39.0,101325,0,0,0,0,0,0,0,0,0,0,0,9.3,0,0,9999,77777,9,999999999,0,0,0,99,0.2,0,0
2023,4,7,21,60,9,27.0,14.7,47.0,101325,0,0,0,0,0,0,0,0,0,0,0,8.1,0,0,9999,77777,9,999999999,0,0,0,99,0.2,0,0
2023,4,7,22,60,9,26.3,15.9,53.0,101325,0,0,0,0,0,0,0,0,0,0,0,8.0,0,0,9999,77777,9,999999999,0,0,0,99,0.2,0,0
2023,4,7,23,60,9,25.6,16.2,56.0,101325,0,0,0,0,0,0,0,0,0,0,0,9.4,0,0,9999,77777,9,999999999,0,0,0,99,0.2,0,0
2023,4,7,24,60,9,26.3,19.5,66.0,101325,0,0,0,0,0,0,0,0,0,0,0,7.6,0,0,9999,77777,9,999999999,0,0,0,99,0.2,0,0
2023,4,8,1,60,9,26.5,19.2,64.0,101325,0,0,0,0,0,0,0,0,0,0,0,7.4,0,0,9999,77777,9,999999999,0,0,0,99,0.2,0,0
2023,4,8,2,60,9,26.7,19.1,63.0,101325,0,0,0,0,0,0,0,0,0,0,0,10.1,0,0,9999,77777,9,999999999,0,0,0,99,0.2,0,0
2023,4,8,3,60,9,27.9,19.3,60.0,101325,0,0,0,0,0,0,0,0,0,0,0,9.3,0,0,9999,77777,9,999999999,0,0,0,99,0.2,0,0
2023,4,8,4,60,9,29.9,18.8,51.0,101325,0,0,0,0,0,0,0,0,0,0,0,7.4,0,0,9999,77777,9,999999999,0,0,0,99,0.2,0,0
2023,4,8,5,60,9,31.7,18.7,46.0,101325,0,0,0,0,0,0,0,0,0,0,0,6.1,0,0,9999,77777,9,999999999,0,0,0,99,0.2,0,0
2023,4,8,6,60,9,34.2,17.8,38.0,101325,0,0,0,0,0,0,0,0,0,0,0,7.9,0,0,9999,77777,9,999999999,0,0,0,99,0.2,0,0
2023,4,8,7,60,9,35.1,17.7,36.0,101325,0,0,0,0,0,0,0,0,0,0,0,9.2,0,0,9999,77777,9,999999999,0,0,0,99,0.2,0,0
2023,4,8,8,60,9,33.5,21.1,48.0,101325,0,0,0,0,0,0,0,0,0,0,0,16.6,0,0,9999,77777,9,999999999,0,0,0,99,0.2,0,0
2023,4,8,9,60,9,33.1,20.6,48.0,101325,0,0,0,0,0,0,0,0,0,0,0,17.1,0,0,9999,77777,9,999999999,0,0,0,99,0.2,0,0
2023,4,8,10,60,9,32.6,21.0,50.0,101325,0,0,0,0,0,0,0,0,0,0,0,14.9,0,0,9999,77777,9,999999999,0,0,0,99,0.2,0,0
2023,4,8,11,60,9,32.3,20.9,51.0,101325,0,0,0,0,0,0,0,0,0,0,0,16.3,0,0,9999,77777,9,999999999,0,0,0,99,0.2,0,0
2023,4,8,12,60,9,31.5,22.0,57.0,101325,0,0,0,0,0,0,0,0,0,0,0,15.9,0,0,9999,77777,9,999999999,0,0,0,99,0.2,0,0
2023,4,8,13,60,9,31.2,22.1,58.0,101325,0,0,0,0,0,0,0,0,0,0,0,15.5,0,0,9999,77777,9,999999999,0,0,0,99,0.2,0,0
2023,4,8,14,60,9,30.1,22.2,63.0,101325,0,0,0,0,0,0,0,0,0,0,0,14.8,0,0,9999,77777,9,999999999,0,0,0,99,0.2,0,0
2023,4,8,15,60,9,29.3,22.3,66.0,101325,0,0,0,0,0,0,0,0,0,0,0,11.3,0,0,9999,77777,9,999999999,0,0,0,99,0.2,0,0
2023,4,8,16,60,9,28.4,21.9,68.0,101325,0,0,0,0,0,0,0,0,0,0,0,4.7,0,0,9999,77777,9,999999999,0,0,0,99,0.2,0,0
2023,4,8,17,60,9,28.0,21.7,68.0,101325,0,0,0,0,0,0,0,0,0,0,0,5.8,0,0,9999,77777,9,999999999,0,0,0,99,0.2,0,0
2023,4,8,18,60,9,27.5,21.4,69.0,101325,0,0,0,0,0,0,0,0,0,0,0,5.8,0,0,9999,77777,9,999999999,0,0,0,99,0.2,0,0
2023,4,8,19,60,9,26.5,20.8,71.0,101325,0,0,0,0,0,0,0,0,0,0,0,7.6,0,0,9999,77777,9,999999999,0,0,0,99,0.2,0,0
2023,4,8,20,60,9,26.6,20.1,68.0,101325,0,0,0,0,0,0,0,0,0,0,0,6.5,0,0,9999,77777,9,999999999,0,0,0,99,0.2,0,0
2023,4,8,21,60,9,26.2,19.8,68.0,101325,0,0,0,0,0,0,0,0,0,0,0,8.2,0,0,9999,77777,9,999999999,0,0,0,99,0.2,0,0
2023,4,8,22,60,9,26.5,19.6,66.0,101325,0,0,0,0,0,0,0,0,0,0,0,6.3,0,0,9999,77777,9,999999999,0,0,0,99,0.2,0,0
2023,4,8,23,60,9,26.3,19.3,65.0,101325,0,0,0,0,0,0,0,0,0,0,0,7.3,0,0,9999,77777,9,999999999,0,0,0,99,0.2,0,0
2023,4,8,24,60,9,26.2,19.2,65.0,101325,0,0,0,0,0,0,0,0,0,0,0,9.0,0,0,9999,77777,9,999999999,0,0,0,99,0.2,0,0
2023,4,9,1,60,9,26.6,21.2,72.0,101325,0,0,0,0,0,0,0,0,0,0,0,9.4,0,0,9999,77777,9,999999999,0,0,0,99,0.2,0,0
2023,4,9,2,60,9,25.6,19.9,71.0,101325,0,0,0,0,0,0,0,0,0,0,0,7.0,0,0,9999,77777,9,999999999,0,0,0,99,0.2,0,0
2023,4,9,3,60,9,27.4,20.2,65.0,101325,0,0,0,0,0,0,0,0,0,0,0,4.8,0,0,9999,77777,9,999999999,0,0,0,99,0.2,0,0
2023,4,9,4,60,9,30.0,19.2,52.0,101325,0,0,0,0,0,0,0,0,0,0,0,4.2,0,0,9999,77777,9,999999999,0,0,0,99,0.2,0,0
2023,4,9,5,60,9,32.5,18.3,43.0,101325,0,0,0,0,0,0,0,0,0,0,0,3.2,0,0,9999,77777,9,999999999,0,0,0,99,0.2,0,0
2023,4,9,6,60,9,34.6,17.3,36.0,101325,0,0,0,0,0,0,0,0,0,0,0,0.5,0,0,9999,77777,9,999999999,0,0,0,99,0.2,0,0
2023,4,9,7,60,9,35.8,15.9,31.0,101325,0,0,0,0,0,0,0,0,0,0,0,5.9,0,0,9999,77777,9,999999999,0,0,0,99,0.2,0,0
2023,4,9,8,60,9,35.0,18.9,39.0,101325,0,0,0,0,0,0,0,0,0,0,0,17.4,0,0,9999,77777,9,999999999,0,0,0,99,0.2,0,0
2023,4,9,9,60,9,34.4,17.9,38.0,101325,0,0,0,0,0,0,0,0,0,0,0,22.7,0,0,9999,77777,9,999999999,0,0,0,99,0.2,0,0
2023,4,9,10,60,9,33.4,20.3,46.0,101325,0,0,0,0,0,0,0,0,0,0,0,23.8,0,0,9999,77777,9,999999999,0,0,0,99,0.2,0,0
2023,4,9,11,60,9,32.9,20.9,49.0,101325,0,0,0,0,0,0,0,0,0,0,0,22.7,0,0,9999,77777,9,999999999,0,0,0,99,0.2,0,0
2023,4,9,12,60,9,32.3,21.9,54.0,101325,0,0,0,0,0,0,0,0,0,0,0,21.0,0,0,9999,77777,9,999999999,0,0,0,99,0.2,0,0
2023,4,9,13,60,9,31.2,21.7,57.0,101325,0,0,0,0,0,0,0,0,0,0,0,13.3,0,0,9999,77777,9,999999999,0,0,0,99,0.2,0,0
2023,4,9,14,60,9,29.7,22.7,66.0,101325,0,0,0,0,0,0,0,0,0,0,0,12.5,0,0,9999,77777,9,999999999,0,0,0,99,0.2,0,0
2023,4,9,15,60,9,28.5,23.9,76.0,101325,0,0,0,0,0,0,0,0,0,0,0,10.8,0,0,9999,77777,9,999999999,0,0,0,99,0.2,0,0
2023,4,9,16,60,9,28.6,21.9,67.0,101325,0,0,0,0,0,0,0,0,0,0,0,10.5,0,0,9999,77777,9,999999999,0,0,0,99,0.2,0,0
2023,4,9,17,60,9,28.2,21.5,67.0,101325,0,0,0,0,0,0,0,0,0,0,0,7.8,0,0,9999,77777,9,999999999,0,0,0,99,0.2,0,0
2023,4,9,18,60,9,27.9,21.8,70.0,101325,0,0,0,0,0,0,0,0,0,0,0,8.2,0,0,9999,77777,9,999999999,0,0,0,99,0.2,0,0
2023,4,9,19,60,9,27.6,21.6,70.0,101325,0,0,0,0,0,0,0,0,0,0,0,6.6,0,0,9999,77777,9,999999999,0,0,0,99,0.2,0,0
2023,4,9,20,60,9,27.0,21.7,73.0,101325,0,0,0,0,0,0,0,0,0,0,0,6.0,0,0,9999,77777,9,999999999,0,0,0,99,0.2,0,0
2023,4,9,21,60,9,26.4,22.1,77.0,101325,0,0,0,0,0,0,0,0,0,0,0,5.4,0,0,9999,77777,9,999999999,0,0,0,99,0.2,0,0
2023,4,9,22,60,9,26.1,22.5,81.0,101325,0,0,0,0,0,0,0,0,0,0,0,5.2,0,0,9999,77777,9,999999999,0,0,0,99,0.2,0,0
2023,4,9,23,60,9,26.5,23.1,82.0,101325,0,0,0,0,0,0,0,0,0,0,0,10.8,0,0,9999,77777,9,999999999,0,0,0,99,0.2,0,0
2023,4,9,24,60,9,26.5,23.1,82.0,101325,0,0,0,0,0,0,0,0,0,0,0,15.5,0,0,9999,77777,9,999999999,0,0,0,99,0.2,0,0
2023,4,10,1,60,9,27.1,23.4,80.0,101325,0,0,0,0,0,0,0,0,0,0,0,15.7,0,0,9999,77777,9,999999999,0,0,0,99,0.2,0,0
2023,4,10,2,60,9,27.2,22.4,75.0,101325,0,0,0,0,0,0,0,0,0,0,0,8.2,0,0,9999,77777,9,999999999,0,0,0,99,0.2,0,0
2023,4,10,3,60,9,27.7,20.9,67.0,101325,0,0,0,0,0,0,0,0,0,0,0,6.2,0,0,9999,77777,9,999999999,0,0,0,99,0.2,0,0
2023,4,10,4,60,9,30.0,19.7,54.0,101325,0,0,0,0,0,0,0,0,0,0,0,5.9,0,0,9999,77777,9,999999999,0,0,0,99,0.2,0,0
2023,4,10,5,60,9,33.3,17.0,38.0,101325,0,0,0,0,0,0,0,0,0,0,0,7.1,0,0,9999,77777,9,999999999,0,0,0,99,0.2,0,0
2023,4,10,6,60,9,35.0,15.4,31.0,101325,0,0,0,0,0,0,0,0,0,0,0,5.2,0,0,9999,77777,9,999999999,0,0,0,99,0.2,0,0
2023,4,10,7,60,9,35.9,16.0,31.0,101325,0,0,0,0,0,0,0,0,0,0,0,5.6,0,0,9999,77777,9,999999999,0,0,0,99,0.2,0,0
2023,4,10,8,60,9,35.4,20.2,41.0,101325,0,0,0,0,0,0,0,0,0,0,0,16.5,0,0,9999,77777,9,999999999,0,0,0,99,0.2,0,0
2023,4,10,9,60,9,35.2,19.8,41.0,101325,0,0,0,0,0,0,0,0,0,0,0,19.0,0,0,9999,77777,9,999999999,0,0,0,99,0.2,0,0
2023,4,10,10,60,9,34.7,18.9,39.0,101325,0,0,0,0,0,0,0,0,0,0,0,21.6,0,0,9999,77777,9,999999999,0,0,0,99,0.2,0,0
2023,4,10,11,60,9,34.3,19.6,42.0,101325,0,0,0,0,0,0,0,0,0,0,0,20.6,0,0,9999,77777,9,999999999,0,0,0,99,0.2,0,0
2023,4,10,12,60,9,33.4,21.1,49.0,101325,0,0,0,0,0,0,0,0,0,0,0,19.6,0,0,9999,77777,9,999999999,0,0,0,99,0.2,0,0
2023,4,10,13,60,9,31.7,22.9,60.0,101325,0,0,0,0,0,0,0,0,0,0,0,19.4,0,0,9999,77777,9,999999999,0,0,0,99,0.2,0,0
2023,4,10,14,60,9,30.0,23.2,67.0,101325,0,0,0,0,0,0,0,0,0,0,0,14.8,0,0,9999,77777,9,999999999,0,0,0,99,0.2,0,0
2023,4,10,15,60,9,29.0,24.4,76.0,101325,0,0,0,0,0,0,0,0,0,0,0,16.7,0,0,9999,77777,9,999999999,0,0,0,99,0.2,0,0
2023,4,10,16,60,9,29.0,22.4,67.0,101325,0,0,0,0,0,0,0,0,0,0,0,15.0,0,0,9999,77777,9,999999999,0,0,0,99,0.2,0,0
2023,4,10,17,60,9,28.7,22.8,70.0,101325,0,0,0,0,0,0,0,0,0,0,0,13.5,0,0,9999,77777,9,999999999,0,0,0,99,0.2,0,0
2023,4,10,18,60,9,28.3,22.6,71.0,101325,0,0,0,0,0,0,0,0,0,0,0,10.5,0,0,9999,77777,9,999999999,0,0,0,99,0.2,0,0
2023,4,10,19,60,9,27.9,22.6,73.0,101325,0,0,0,0,0,0,0,0,0,0,0,10.8,0,0,9999,77777,9,999999999,0,0,0,99,0.2,0,0
2023,4,10,20,60,9,27.6,22.6,74.0,101325,0,0,0,0,0,0,0,0,0,0,0,10.8,0,0,9999,77777,9,999999999,0,0,0,99,0.2,0,0
2023,4,10,21,60,9,27.2,22.7,76.0,101325,0,0,0,0,0,0,0,0,0,0,0,9.8,0,0,9999,77777,9,999999999,0,0,0,99,0.2,0,0
2023,4,10,22,60,9,26.8,22.6,78.0,101325,0,0,0,0,0,0,0,0,0,0,0,9.7,0,0,9999,77777,9,999999999,0,0,0,99,0.2,0,0
2023,4,10,23,60,9,26.9,22.1,75.0,101325,0,0,0,0,0,0,0,0,0,0,0,12.2,0,0,9999,77777,9,999999999,0,0,0,99,0.2,0,0
2023,4,10,24,60,9,26.9,21.2,71.0,101325,0,0,0,0,0,0,0,0,0,0,0,12.7,0,0,9999,77777,9,999999999,0,0,0,99,0.2,0,0
2023,4,11,1,60,9,26.8,22.7,79.0,101325,0,0,0,0,0,0,0,0,0,0,0,10.1,0,0,9999,77777,9,999999999,0,0,0,99,0.2,0,0
2023,4,11,2,60,9,26.5,22.3,78.0,101325,0,0,0,0,0,0,0,0,0,0,0,6.8,0,0,9999,77777,9,999999999,0,0,0,99,0.2,0,0
2023,4,11,3,60,9,27.6,21.4,69.0,101325,0,0,0,0,0,0,0,0,0,0,0,8.1,0,0,9999,77777,9,999999999,0,0,0,99,0.2,0,0
2023,4,11,4,60,9,30.1,19.7,54.0,101325,0,0,0,0,0,0,0,0,0,0,0,6.8,0,0,9999,77777,9,999999999,0,0,0,99,0.2,0,0
2023,4,11,5,60,9,33.0,18.0,41.0,101325,0,0,0,0,0,0,0,0,0,0,0,7.9,0,0,9999,77777,9,999999999,0,0,0,99,0.2,0,0
2023,4,11,6,60,9,34.7,18.5,39.0,101325,0,0,0,0,0,0,0,0,0,0,0,11.5,0,0,9999,77777,9,999999999,0,0,0,99,0.2,0,0
2023,4,11,7,60,9,34.6,21.1,45.0,101325,0,0,0,0,0,0,0,0,0,0,0,16.9,0,0,9999,77777,9,999999999,0,0,0,99,0.2,0,0
2023,4,11,8,60,9,34.9,19.5,40.0,101325,0,0,0,0,0,0,0,0,0,0,0,20.7,0,0,9999,77777,9,999999999,0,0,0,99,0.2,0,0
2023,4,11,9,60,9,34.6,18.0,37.0,101325,0,0,0,0,0,0,0,0,0,0,0,22.5,0,0,9999,77777,9,999999999,0,0,0,99,0.2,0,0
2023,4,11,10,60,9,34.5,18.6,39.0,101325,0,0,0,0,0,0,0,0,0,0,0,21.7,0,0,9999,77777,9,999999999,0,0,0,99,0.2,0,0
2023,4,11,11,60,9,33.2,20.3,47.0,101325,0,0,0,0,0,0,0,0,0,0,0,22.7,0,0,9999,77777,9,999999999,0,0,0,99,0.2,0,0
2023,4,11,12,60,9,32.5,20.5,49.0,101325,0,0,0,0,0,0,0,0,0,0,0,22.2,0,0,9999,77777,9,999999999,0,0,0,99,0.2,0,0
2023,4,11,13,60,9,31.1,21.5,57.0,101325,0,0,0,0,0,0,0,0,0,0,0,19.4,0,0,9999,77777,9,999999999,0,0,0,99,0.2,0,0
2023,4,11,14,60,9,29.5,22.5,66.0,101325,0,0,0,0,0,0,0,0,0,0,0,18.4,0,0,9999,77777,9,999999999,0,0,0,99,0.2,0,0
2023,4,11,15,60,9,28.4,24.5,79.0,101325,0,0,0,0,0,0,0,0,0,0,0,15.1,0,0,9999,77777,9,999999999,0,0,0,99,0.2,0,0
2023,4,11,16,60,9,28.5,23.0,72.0,101325,0,0,0,0,0,0,0,0,0,0,0,15.7,0,0,9999,77777,9,999999999,0,0,0,99,0.2,0,0
2023,4,11,17,60,9,28.6,22.3,69.0,101325,0,0,0,0,0,0,0,0,0,0,0,14.4,0,0,9999,77777,9,999999999,0,0,0,99,0.2,0,0
2023,4,11,18,60,9,28.1,22.4,71.0,101325,0,0,0,0,0,0,0,0,0,0,0,9.4,0,0,9999,77777,9,999999999,0,0,0,99,0.2,0,0
2023,4,11,19,60,9,27.0,22.2,75.0,101325,0,0,0,0,0,0,0,0,0,0,0,5.4,0,0,9999,77777,9,999999999,0,0,0,99,0.2,0,0
2023,4,11,20,60,9,27.1,22.7,77.0,101325,0,0,0,0,0,0,0,0,0,0,0,5.7,0,0,9999,77777,9,999999999,0,0,0,99,0.2,0,0
2023,4,11,21,60,9,26.9,23.0,79.0,101325,0,0,0,0,0,0,0,0,0,0,0,6.6,0,0,9999,77777,9,999999999,0,0,0,99,0.2,0,0
2023,4,11,22,60,9,27.1,22.7,77.0,101325,0,0,0,0,0,0,0,0,0,0,0,12.1,0,0,9999,77777,9,999999999,0,0,0,99,0.2,0,0
2023,4,11,23,60,9,27.4,21.7,71.0,101325,0,0,0,0,0,0,0,0,0,0,0,15.5,0,0,9999,77777,9,999999999,0,0,0,99,0.2,0,0
2023,4,11,24,60,9,27.4,20.9,68.0,101325,0,0,0,0,0,0,0,0,0,0,0,14.8,0,0,9999,77777,9,999999999,0,0,0,99,0.2,0,0
2023,4,12,1,60,9,27.1,22.4,76.0,101325,0,0,0,0,0,0,0,0,0,0,0,11.3,0,0,9999,77777,9,999999999,0,0,0,99,0.2,0,0
2023,4,12,2,60,9,26.6,21.6,74.0,101325,0,0,0,0,0,0,0,0,0,0,0,9.9,0,0,9999,77777,9,999999999,0,0,0,99,0.2,0,0
2023,4,12,3,60,9,27.4,21.1,69.0,101325,0,0,0,0,0,0,0,0,0,0,0,8.8,0,0,9999,77777,9,999999999,0,0,0,99,0.2,0,0
2023,4,12,4,60,9,29.9,19.2,53.0,101325,0,0,0,0,0,0,0,0,0,0,0,6.1,0,0,9999,77777,9,999999999,0,0,0,99,0.2,0,0
2023,4,12,5,60,9,32.5,18.0,42.0,101325,0,0,0,0,0,0,0,0,0,0,0,3.6,0,0,9999,77777,9,999999999,0,0,0,99,0.2,0,0
2023,4,12,6,60,9,34.5,17.8,37.0,101325,0,0,0,0,0,0,0,0,0,0,0,7.1,0,0,9999,77777,9,999999999,0,0,0,99,0.2,0,0
2023,4,12,7,60,9,35.2,20.0,41.0,101325,0,0,0,0,0,0,0,0,0,0,0,14.7,0,0,9999,77777,9,999999999,0,0,0,99,0.2,0,0
2023,4,12,8,60,9,35.0,21.9,47.0,101325,0,0,0,0,0,0,0,0,0,0,0,20.2,0,0,9999,77777,9,999999999,0,0,0,99,0.2,0,0
2023,4,12,9,60,9,35.4,20.0,41.0,101325,0,0,0,0,0,0,0,0,0,0,0,23.2,0,0,9999,77777,9,999999999,0,0,0,99,0.2,0,0
2023,4,12,10,60,9,35.7,17.3,34.0,101325,0,0,0,0,0,0,0,0,0,0,0,22.9,0,0,9999,77777,9,999999999,0,0,0,99,0.2,0,0
2023,4,12,11,60,9,34.9,17.4,35.0,101325,0,0,0,0,0,0,0,0,0,0,0,23.4,0,0,9999,77777,9,999999999,0,0,0,99,0.2,0,0
2023,4,12,12,60,9,33.4,19.2,43.0,101325,0,0,0,0,0,0,0,0,0,0,0,24.7,0,0,9999,77777,9,999999999,0,0,0,99,0.2,0,0
2023,4,12,13,60,9,32.2,19.5,47.0,101325,0,0,0,0,0,0,0,0,0,0,0,24.3,0,0,9999,77777,9,999999999,0,0,0,99,0.2,0,0
2023,4,12,14,60,9,31.0,19.8,51.0,101325,0,0,0,0,0,0,0,0,0,0,0,22.8,0,0,9999,77777,9,999999999,0,0,0,99,0.2,0,0
2023,4,12,15,60,9,30.8,19.0,49.0,101325,0,0,0,0,0,0,0,0,0,0,0,23.2,0,0,9999,77777,9,999999999,0,0,0,99,0.2,0,0
2023,4,12,16,60,9,31.0,17.4,44.0,101325,0,0,0,0,0,0,0,0,0,0,0,25.0,0,0,9999,77777,9,999999999,0,0,0,99,0.2,0,0
2023,4,12,17,60,9,30.1,19.6,53.0,101325,0,0,0,0,0,0,0,0,0,0,0,20.6,0,0,9999,77777,9,999999999,0,0,0,99,0.2,0,0
2023,4,12,18,60,9,29.2,20.2,58.0,101325,0,0,0,0,0,0,0,0,0,0,0,14.7,0,0,9999,77777,9,999999999,0,0,0,99,0.2,0,0
2023,4,12,19,60,9,28.7,20.0,60.0,101325,0,0,0,0,0,0,0,0,0,0,0,14.8,0,0,9999,77777,9,999999999,0,0,0,99,0.2,0,0
2023,4,12,20,60,9,28.2,19.3,58.0,101325,0,0,0,0,0,0,0,0,0,0,0,11.1,0,0,9999,77777,9,999999999,0,0,0,99,0.2,0,0
2023,4,12,21,60,9,28.1,17.6,53.0,101325,0,0,0,0,0,0,0,0,0,0,0,12.7,0,0,9999,77777,9,999999999,0,0,0,99,0.2,0,0
2023,4,12,22,60,9,28.1,17.2,52.0,101325,0,0,0,0,0,0,0,0,0,0,0,13.4,0,0,9999,77777,9,999999999,0,0,0,99,0.2,0,0
2023,4,12,23,60,9,27.8,17.0,52.0,101325,0,0,0,0,0,0,0,0,0,0,0,10.0,0,0,9999,77777,9,999999999,0,0,0,99,0.2,0,0
2023,4,12,24,60,9,27.2,16.9,53.0,101325,0,0,0,0,0,0,0,0,0,0,0,8.3,0,0,9999,77777,9,999999999,0,0,0,99,0.2,0,0
2023,4,13,1,60,9,28.5,17.5,51.0,101325,0,0,0,0,0,0,0,0,0,0,0,8.6,0,0,9999,77777,9,999999999,0,0,0,99,0.2,0,0
2023,4,13,2,60,9,27.5,17.8,55.0,101325,0,0,0,0,0,0,0,0,0,0,0,7.1,0,0,9999,77777,9,999999999,0,0,0,99,0.2,0,0
2023,4,13,3,60,9,28.6,17.8,52.0,101325,0,0,0,0,0,0,0,0,0,0,0,6.6,0,0,9999,77777,9,999999999,0,0,0,99,0.2,0,0
2023,4,13,4,60,9,31.0,16.1,41.0,101325,0,0,0,0,0,0,0,0,0,0,0,4.2,0,0,9999,77777,9,999999999,0,0,0,99,0.2,0,0
2023,4,13,5,60,9,33.7,14.8,32.0,101325,0,0,0,0,0,0,0,0,0,0,0,5.1,0,0,9999,77777,9,999999999,0,0,0,99,0.2,0,0
2023,4,13,6,60,9,35.2,15.5,31.0,101325,0,0,0,0,0,0,0,0,0,0,0,7.7,0,0,9999,77777,9,999999999,0,0,0,99,0.2,0,0
2023,4,13,7,60,9,34.5,19.5,41.0,101325,0,0,0,0,0,0,0,0,0,0,0,13.5,0,0,9999,77777,9,999999999,0,0,0,99,0.2,0,0
2023,4,13,8,60,9,33.7,23.0,54.0,101325,0,0,0,0,0,0,0,0,0,0,0,18.0,0,0,9999,77777,9,999999999,0,0,0,99,0.2,0,0
2023,4,13,9,60,9,34.2,21.6,48.0,101325,0,0,0,0,0,0,0,0,0,0,0,21.1,0,0,9999,77777,9,999999999,0,0,0,99,0.2,0,0
2023,4,13,10,60,9,34.6,22.3,49.0,101325,0,0,0,0,0,0,0,0,0,0,0,22.2,0,0,9999,77777,9,999999999,0,0,0,99,0.2,0,0
2023,4,13,11,60,9,33.5,22.1,51.0,101325,0,0,0,0,0,0,0,0,0,0,0,22.1,0,0,9999,77777,9,999999999,0,0,0,99,0.2,0,0
2023,4,13,12,60,9,33.2,21.1,49.0,101325,0,0,0,0,0,0,0,0,0,0,0,21.4,0,0,9999,77777,9,999999999,0,0,0,99,0.2,0,0
2023,4,13,13,60,9,32.3,21.4,53.0,101325,0,0,0,0,0,0,0,0,0,0,0,22.4,0,0,9999,77777,9,999999999,0,0,0,99,0.2,0,0
2023,4,13,14,60,9,31.1,21.6,57.0,101325,0,0,0,0,0,0,0,0,0,0,0,21.9,0,0,9999,77777,9,999999999,0,0,0,99,0.2,0,0
2023,4,13,15,60,9,30.9,19.5,51.0,101325,0,0,0,0,0,0,0,0,0,0,0,20.7,0,0,9999,77777,9,999999999,0,0,0,99,0.2,0,0
2023,4,13,16,60,9,30.4,19.1,51.0,101325,0,0,0,0,0,0,0,0,0,0,0,17.6,0,0,9999,77777,9,999999999,0,0,0,99,0.2,0,0
2023,4,13,17,60,9,29.5,21.3,61.0,101325,0,0,0,0,0,0,0,0,0,0,0,18.4,0,0,9999,77777,9,999999999,0,0,0,99,0.2,0,0
2023,4,13,18,60,9,28.6,22.3,69.0,101325,0,0,0,0,0,0,0,0,0,0,0,17.1,0,0,9999,77777,9,999999999,0,0,0,99,0.2,0,0
2023,4,13,19,60,9,28.1,22.4,71.0,101325,0,0,0,0,0,0,0,0,0,0,0,15.3,0,0,9999,77777,9,999999999,0,0,0,99,0.2,0,0
2023,4,13,20,60,9,27.8,21.8,70.0,101325,0,0,0,0,0,0,0,0,0,0,0,12.7,0,0,9999,77777,9,999999999,0,0,0,99,0.2,0,0
2023,4,13,21,60,9,27.6,21.0,67.0,101325,0,0,0,0,0,0,0,0,0,0,0,12.1,0,0,9999,77777,9,999999999,0,0,0,99,0.2,0,0
2023,4,13,22,60,9,27.4,20.3,65.0,101325,0,0,0,0,0,0,0,0,0,0,0,9.7,0,0,9999,77777,9,999999999,0,0,0,99,0.2,0,0
2023,4,13,23,60,9,27.2,20.3,66.0,101325,0,0,0,0,0,0,0,0,0,0,0,11.2,0,0,9999,77777,9,999999999,0,0,0,99,0.2,0,0
2023,4,13,24,60,9,27.3,20.3,66.0,101325,0,0,0,0,0,0,0,0,0,0,0,12.6,0,0,9999,77777,9,999999999,0,0,0,99,0.2,0,0
2023,4,14,1,60,9,27.2,21.7,72.0,101325,0,0,0,0,0,0,0,0,0,0,0,11.2,0,0,9999,77777,9,999999999,0,0,0,99,0.2,0,0
2023,4,14,2,60,9,26.7,22.2,77.0,101325,0,0,0,0,0,0,0,0,0,0,0,7.6,0,0,9999,77777,9,999999999,0,0,0,99,0.2,0,0
2023,4,14,3,60,9,27.7,22.3,73.0,101325,0,0,0,0,0,0,0,0,0,0,0,7.8,0,0,9999,77777,9,999999999,0,0,0,99,0.2,0,0
2023,4,14,4,60,9,29.6,22.2,65.0,101325,0,0,0,0,0,0,0,0,0,0,0,5.7,0,0,9999,77777,9,999999999,0,0,0,99,0.2,0,0
2023,4,14,5,60,9,31.7,22.5,58.0,101325,0,0,0,0,0,0,0,0,0,0,0,8.1,0,0,9999,77777,9,999999999,0,0,0,99,0.2,0,0
2023,4,14,6,60,9,33.8,21.9,50.0,101325,0,0,0,0,0,0,0,0,0,0,0,12.2,0,0,9999,77777,9,999999999,0,0,0,99,0.2,0,0
2023,4,14,7,60,9,34.8,22.0,47.0,101325,0,0,0,0,0,0,0,0,0,0,0,14.9,0,0,9999,77777,9,999999999,0,0,0,99,0.2,0,0
2023,4,14,8,60,9,35.1,23.4,51.0,101325,0,0,0,0,0,0,0,0,0,0,0,18.9,0,0,9999,77777,9,999999999,0,0,0,99,0.2,0,0
2023,4,14,9,60,9,35.2,20.8,43.0,101325,0,0,0,0,0,0,0,0,0,0,0,20.0,0,0,9999,77777,9,999999999,0,0,0,99,0.2,0,0
2023,4,14,10,60,9,34.9,17.4,35.0,101325,0,0,0,0,0,0,0,0,0,0,0,20.9,0,0,9999,77777,9,999999999,0,0,0,99,0.2,0,0
2023,4,14,11,60,9,32.7,18.2,42.0,101325,0,0,0,0,0,0,0,0,0,0,0,21.7,0,0,9999,77777,9,999999999,0,0,0,99,0.2,0,0
2023,4,14,12,60,9,32.2,19.9,48.0,101325,0,0,0,0,0,0,0,0,0,0,0,20.5,0,0,9999,77777,9,999999999,0,0,0,99,0.2,0,0
2023,4,14,13,60,9,31.7,19.2,48.0,101325,0,0,0,0,0,0,0,0,0,0,0,21.2,0,0,9999,77777,9,999999999,0,0,0,99,0.2,0,0
2023,4,14,14,60,9,30.4,20.3,55.0,101325,0,0,0,0,0,0,0,0,0,0,0,20.2,0,0,9999,77777,9,999999999,0,0,0,99,0.2,0,0
2023,4,14,15,60,9,29.7,20.2,57.0,101325,0,0,0,0,0,0,0,0,0,0,0,20.3,0,0,9999,77777,9,999999999,0,0,0,99,0.2,0,0
2023,4,14,16,60,9,28.9,21.6,65.0,101325,0,0,0,0,0,0,0,0,0,0,0,18.9,0,0,9999,77777,9,999999999,0,0,0,99,0.2,0,0
2023,4,14,17,60,9,28.4,22.0,68.0,101325,0,0,0,0,0,0,0,0,0,0,0,14.7,0,0,9999,77777,9,999999999,0,0,0,99,0.2,0,0
2023,4,14,18,60,9,28.1,22.4,71.0,101325,0,0,0,0,0,0,0,0,0,0,0,10.6,0,0,9999,77777,9,999999999,0,0,0,99,0.2,0,0
2023,4,14,19,60,9,27.4,22.5,75.0,101325,0,0,0,0,0,0,0,0,0,0,0,6.3,0,0,9999,77777,9,999999999,0,0,0,99,0.2,0,0
2023,4,14,20,60,9,26.3,22.2,78.0,101325,0,0,0,0,0,0,0,0,0,0,0,5.5,0,0,9999,77777,9,999999999,0,0,0,99,0.2,0,0
2023,4,14,21,60,9,25.6,22.1,81.0,101325,0,0,0,0,0,0,0,0,0,0,0,7.6,0,0,9999,77777,9,999999999,0,0,0,99,0.2,0,0
2023,4,14,22,60,9,26.0,21.6,77.0,101325,0,0,0,0,0,0,0,0,0,0,0,5.8,0,0,9999,77777,9,999999999,0,0,0,99,0.2,0,0
2023,4,14,23,60,9,25.8,21.1,76.0,101325,0,0,0,0,0,0,0,0,0,0,0,6.9,0,0,9999,77777,9,999999999,0,0,0,99,0.2,0,0
2023,4,14,24,60,9,25.6,20.6,74.0,101325,0,0,0,0,0,0,0,0,0,0,0,7.9,0,0,9999,77777,9,999999999,0,0,0,99,0.2,0,0
2023,4,15,1,60,9,25.2,21.3,79.0,101325,0,0,0,0,0,0,0,0,0,0,0,6.0,0,0,9999,77777,9,999999999,0,0,0,99,0.2,0,0
2023,4,15,2,60,9,25.2,20.8,77.0,101325,0,0,0,0,0,0,0,0,0,0,0,5.7,0,0,9999,77777,9,999999999,0,0,0,99,0.2,0,0
2023,4,15,3,60,9,26.9,20.1,66.0,101325,0,0,0,0,0,0,0,0,0,0,0,8.7,0,0,9999,77777,9,999999999,0,0,0,99,0.2,0,0
2023,4,15,4,60,9,30.0,18.5,50.0,101325,0,0,0,0,0,0,0,0,0,0,0,7.1,0,0,9999,77777,9,999999999,0,0,0,99,0.2,0,0
2023,4,15,5,60,9,33.1,16.3,37.0,101325,0,0,0,0,0,0,0,0,0,0,0,5.1,0,0,9999,77777,9,999999999,0,0,0,99,0.2,0,0
2023,4,15,6,60,9,34.6,16.3,34.0,101325,0,0,0,0,0,0,0,0,0,0,0,1.6,0,0,9999,77777,9,999999999,0,0,0,99,0.2,0,0
2023,4,15,7,60,9,35.2,17.2,34.0,101325,0,0,0,0,0,0,0,0,0,0,0,9.4,0,0,9999,77777,9,999999999,0,0,0,99,0.2,0,0
2023,4,15,8,60,9,34.4,19.6,42.0,101325,0,0,0,0,0,0,0,0,0,0,0,16.5,0,0,9999,77777,9,999999999,0,0,0,99,0.2,0,0
2023,4,15,9,60,9,33.9,20.1,45.0,101325,0,0,0,0,0,0,0,0,0,0,0,20.0,0,0,9999,77777,9,999999999,0,0,0,99,0.2,0,0
2023,4,15,10,60,9,33.1,20.6,48.0,101325,0,0,0,0,0,0,0,0,0,0,0,21.8,0,0,9999,77777,9,999999999,0,0,0,99,0.2,0,0
2023,4,15,11,60,9,32.7,19.6,46.0,101325,0,0,0,0,0,0,0,0,0,0,0,21.9,0,0,9999,77777,9,999999999,0,0,0,99,0.2,0,0
2023,4,15,12,60,9,32.1,19.4,47.0,101325,0,0,0,0,0,0,0,0,0,0,0,20.6,0,0,9999,77777,9,999999999,0,0,0,99,0.2,0,0
2023,4,15,13,60,9,30.5,20.7,56.0,101325,0,0,0,0,0,0,0,0,0,0,0,18.6,0,0,9999,77777,9,999999999,0,0,0,99,0.2,0,0
2023,4,15,14,60,9,29.3,21.8,64.0,101325,0,0,0,0,0,0,0,0,0,0,0,12.8,0,0,9999,77777,9,999999999,0,0,0,99,0.2,0,0
2023,4,15,15,60,9,28.3,22.1,69.0,101325,0,0,0,0,0,0,0,0,0,0,0,8.9,0,0,9999,77777,9,999999999,0,0,0,99,0.2,0,0
2023,4,15,16,60,9,27.6,22.5,74.0,101325,0,0,0,0,0,0,0,0,0,0,0,9.2,0,0,9999,77777,9,999999999,0,0,0,99,0.2,0,0
2023,4,15,17,60,9,27.0,23.0,79.0,101325,0,0,0,0,0,0,0,0,0,0,0,7.4,0,0,9999,77777,9,999999999,0,0,0,99,0.2,0,0
2023,4,15,18,60,9,25.6,23.5,88.0,101325,0,0,0,0,0,0,0,0,0,0,0,6.1,0,0,9999,77777,9,999999999,0,0,0,99,0.2,0,0
2023,4,15,19,60,9,26.0,23.5,86.0,101325,0,0,0,0,0,0,0,0,0,0,0,5.2,0,0,9999,77777,9,999999999,0,0,0,99,0.2,0,0
2023,4,15,20,60,9,26.7,23.6,83.0,101325,0,0,0,0,0,0,0,0,0,0,0,4.0,0,0,9999,77777,9,999999999,0,0,0,99,0.2,0,0
2023,4,15,21,60,9,25.0,23.3,91.0,101325,0,0,0,0,0,0,0,0,0,0,0,5.4,0,0,9999,77777,9,999999999,0,0,0,99,0.2,0,0
2023,4,15,22,60,9,24.1,23.0,94.0,101325,0,0,0,0,0,0,0,0,0,0,0,6.9,0,0,9999,77777,9,999999999,0,0,0,99,0.2,0,0
2023,4,15,23,60,9,24.6,23.5,93.0,101325,0,0,0,0,0,0,0,0,0,0,0,6.4,0,0,9999,77777,9,999999999,0,0,0,99,0.2,0,0
2023,4,15,24,60,9,25.0,23.8,93.0,101325,0,0,0,0,0,0,0,0,0,0,0,8.3,0,0,9999,77777,9,999999999,0,0,0,99,0.2,0,0
2023,4,16,1,60,9,25.1,24.1,94.0,101325,0,0,0,0,0,0,0,0,0,0,0,8.7,0,0,9999,77777,9,999999999,0,0,0,99,0.2,0,0
2023,4,16,2,60,9,24.7,23.9,95.0,101325,0,0,0,0,0,0,0,0,0,0,0,7.6,0,0,9999,77777,9,999999999,0,0,0,99,0.2,0,0
2023,4,16,3,60,9,25.9,23.6,87.0,101325,0,0,0,0,0,0,0,0,0,0,0,9.0,0,0,9999,77777,9,999999999,0,0,0,99,0.2,0,0
2023,4,16,4,60,9,28.5,21.6,66.0,101325,0,0,0,0,0,0,0,0,0,0,0,9.0,0,0,9999,77777,9,999999999,0,0,0,99,0.2,0,0
2023,4,16,5,60,9,31.5,17.2,43.0,101325,0,0,0,0,0,0,0,0,0,0,0,9.6,0,0,9999,77777,9,999999999,0,0,0,99,0.2,0,0
2023,4,16,6,60,9,33.4,16.4,36.0,101325,0,0,0,0,0,0,0,0,0,0,0,11.1,0,0,9999,77777,9,999999999,0,0,0,99,0.2,0,0
2023,4,16,7,60,9,34.1,18.8,41.0,101325,0,0,0,0,0,0,0,0,0,0,0,15.8,0,0,9999,77777,9,999999999,0,0,0,99,0.2,0,0
2023,4,16,8,60,9,33.9,19.3,42.0,101325,0,0,0,0,0,0,0,0,0,0,0,20.1,0,0,9999,77777,9,999999999,0,0,0,99,0.2,0,0
2023,4,16,9,60,9,33.7,17.8,39.0,101325,0,0,0,0,0,0,0,0,0,0,0,21.1,0,0,9999,77777,9,999999999,0,0,0,99,0.2,0,0
2023,4,16,10,60,9,33.2,19.4,44.0,101325,0,0,0,0,0,0,0,0,0,0,0,21.3,0,0,9999,77777,9,999999999,0,0,0,99,0.2,0,0
2023,4,16,11,60,9,32.2,20.9,51.0,101325,0,0,0,0,0,0,0,0,0,0,0,22.5,0,0,9999,77777,9,999999999,0,0,0,99,0.2,0,0
2023,4,16,12,60,9,31.3,21.9,57.0,101325,0,0,0,0,0,0,0,0,0,0,0,21.9,0,0,9999,77777,9,999999999,0,0,0,99,0.2,0,0
2023,4,16,13,60,9,30.1,22.7,65.0,101325,0,0,0,0,0,0,0,0,0,0,0,19.6,0,0,9999,77777,9,999999999,0,0,0,99,0.2,0,0
2023,4,16,14,60,9,28.7,24.3,77.0,101325,0,0,0,0,0,0,0,0,0,0,0,17.3,0,0,9999,77777,9,999999999,0,0,0,99,0.2,0,0
2023,4,16,15,60,9,27.9,24.9,84.0,101325,0,0,0,0,0,0,0,0,0,0,0,12.3,0,0,9999,77777,9,999999999,0,0,0,99,0.2,0,0
2023,4,16,16,60,9,27.7,24.2,81.0,101325,0,0,0,0,0,0,0,0,0,0,0,11.1,0,0,9999,77777,9,999999999,0,0,0,99,0.2,0,0
2023,4,16,17,60,9,27.4,24.6,85.0,101325,0,0,0,0,0,0,0,0,0,0,0,10.5,0,0,9999,77777,9,999999999,0,0,0,99,0.2,0,0
2023,4,16,18,60,9,26.8,24.5,88.0,101325,0,0,0,0,0,0,0,0,0,0,0,5.2,0,0,9999,77777,9,999999999,0,0,0,99,0.2,0,0
2023,4,16,19,60,9,25.8,24.5,93.0,101325,0,0,0,0,0,0,0,0,0,0,0,5.7,0,0,9999,77777,9,999999999,0,0,0,99,0.2,0,0
2023,4,16,20,60,9,25.6,24.5,93.0,101325,0,0,0,0,0,0,0,0,0,0,0,4.7,0,0,9999,77777,9,999999999,0,0,0,99,0.2,0,0
2023,4,16,21,60,9,25.7,24.5,93.0,101325,0,0,0,0,0,0,0,0,0,0,0,6.6,0,0,9999,77777,9,999999999,0,0,0,99,0.2,0,0
2023,4,16,22,60,9,25.6,24.3,93.0,101325,0,0,0,0,0,0,0,0,0,0,0,8.5,0,0,9999,77777,9,999999999,0,0,0,99,0.2,0,0
2023,4,16,23,60,9,25.5,24.2,93.0,101325,0,0,0,0,0,0,0,0,0,0,0,10.1,0,0,9999,77777,9,999999999,0,0,0,99,0.2,0,0
2023,4,16,24,60,9,25.2,24.0,93.0,101325,0,0,0,0,0,0,0,0,0,0,0,8.8,0,0,9999,77777,9,999999999,0,0,0,99,0.2,0,0
2023,4,17,1,60,9,25.1,23.6,91.0,101325,0,0,0,0,0,0,0,0,0,0,0,8.6,0,0,9999,77777,9,999999999,0,0,0,99,0.2,0,0
2023,4,17,2,60,9,24.5,22.7,90.0,101325,0,0,0,0,0,0,0,0,0,0,0,6.4,0,0,9999,77777,9,999999999,0,0,0,99,0.2,0,0
2023,4,17,3,60,9,26.0,22.2,80.0,101325,0,0,0,0,0,0,0,0,0,0,0,8.4,0,0,9999,77777,9,999999999,0,0,0,99,0.2,0,0
2023,4,17,4,60,9,28.7,20.9,63.0,101325,0,0,0,0,0,0,0,0,0,0,0,8.6,0,0,9999,77777,9,999999999,0,0,0,99,0.2,0,0
2023,4,17,5,60,9,31.4,19.6,50.0,101325,0,0,0,0,0,0,0,0,0,0,0,7.6,0,0,9999,77777,9,999999999,0,0,0,99,0.2,0,0
2023,4,17,6,60,9,33.8,18.2,40.0,101325,0,0,0,0,0,0,0,0,0,0,0,5.4,0,0,9999,77777,9,999999999,0,0,0,99,0.2,0,0
2023,4,17,7,60,9,34.1,21.3,47.0,101325,0,0,0,0,0,0,0,0,0,0,0,12.2,0,0,9999,77777,9,999999999,0,0,0,99,0.2,0,0
2023,4,17,8,60,9,32.9,24.1,60.0,101325,0,0,0,0,0,0,0,0,0,0,0,19.2,0,0,9999,77777,9,999999999,0,0,0,99,0.2,0,0
2023,4,17,9,60,9,33.0,22.8,55.0,101325,0,0,0,0,0,0,0,0,0,0,0,21.4,0,0,9999,77777,9,999999999,0,0,0,99,0.2,0,0
2023,4,17,10,60,9,32.8,22.5,55.0,101325,0,0,0,0,0,0,0,0,0,0,0,23.3,0,0,9999,77777,9,999999999,0,0,0,99,0.2,0,0
2023,4,17,11,60,9,32.5,22.1,54.0,101325,0,0,0,0,0,0,0,0,0,0,0,22.0,0,0,9999,77777,9,999999999,0,0,0,99,0.2,0,0
2023,4,17,12,60,9,31.6,22.7,59.0,101325,0,0,0,0,0,0,0,0,0,0,0,20.4,0,0,9999,77777,9,999999999,0,0,0,99,0.2,0,0
2023,4,17,13,60,9,30.2,22.9,65.0,101325,0,0,0,0,0,0,0,0,0,0,0,17.8,0,0,9999,77777,9,999999999,0,0,0,99,0.2,0,0
2023,4,17,14,60,9,29.3,22.8,68.0,101325,0,0,0,0,0,0,0,0,0,0,0,16.3,0,0,9999,77777,9,999999999,0,0,0,99,0.2,0,0
2023,4,17,15,60,9,28.5,23.3,74.0,101325,0,0,0,0,0,0,0,0,0,0,0,16.8,0,0,9999,77777,9,999999999,0,0,0,99,0.2,0,0
2023,4,17,16,60,9,28.3,22.6,71.0,101325,0,0,0,0,0,0,0,0,0,0,0,13.6,0,0,9999,77777,9,999999999,0,0,0,99,0.2,0,0
2023,4,17,17,60,9,27.3,23.0,77.0,101325,0,0,0,0,0,0,0,0,0,0,0,4.8,0,0,9999,77777,9,999999999,0,0,0,99,0.2,0,0
2023,4,17,18,60,9,26.8,23.1,80.0,101325,0,0,0,0,0,0,0,0,0,0,0,5.2,0,0,9999,77777,9,999999999,0,0,0,99,0.2,0,0
2023,4,17,19,60,9,26.0,23.5,86.0,101325,0,0,0,0,0,0,0,0,0,0,0,6.0,0,0,9999,77777,9,999999999,0,0,0,99,0.2,0,0
2023,4,17,20,60,9,26.7,23.4,82.0,101325,0,0,0,0,0,0,0,0,0,0,0,9.7,0,0,9999,77777,9,999999999,0,0,0,99,0.2,0,0
2023,4,17,21,60,9,26.4,23.7,85.0,101325,0,0,0,0,0,0,0,0,0,0,0,8.3,0,0,9999,77777,9,999999999,0,0,0,99,0.2,0,0
2023,4,17,22,60,9,26.4,22.4,79.0,101325,0,0,0,0,0,0,0,0,0,0,0,12.4,0,0,9999,77777,9,999999999,0,0,0,99,0.2,0,0
2023,4,17,23,60,9,26.6,20.8,71.0,101325,0,0,0,0,0,0,0,0,0,0,0,15.5,0,0,9999,77777,9,999999999,0,0,0,99,0.2,0,0
2023,4,17,24,60,9,26.5,19.6,66.0,101325,0,0,0,0,0,0,0,0,0,0,0,12.5,0,0,9999,77777,9,999999999,0,0,0,99,0.2,0,0
2023,4,18,1,60,9,26.9,20.1,67.0,101325,0,0,0,0,0,0,0,0,0,0,0,9.3,0,0,9999,77777,9,999999999,0,0,0,99,0.2,0,0
2023,4,18,2,60,9,26.3,20.0,69.0,101325,0,0,0,0,0,0,0,0,0,0,0,7.0,0,0,9999,77777,9,999999999,0,0,0,99,0.2,0,0
2023,4,18,3,60,9,28.0,19.7,61.0,101325,0,0,0,0,0,0,0,0,0,0,0,13.0,0,0,9999,77777,9,999999999,0,0,0,99,0.2,0,0
2023,4,18,4,60,9,30.7,18.5,48.0,101325,0,0,0,0,0,0,0,0,0,0,0,9.7,0,0,9999,77777,9,999999999,0,0,0,99,0.2,0,0
2023,4,18,5,60,9,33.6,16.6,36.0,101325,0,0,0,0,0,0,0,0,0,0,0,9.2,0,0,9999,77777,9,999999999,0,0,0,99,0.2,0,0
2023,4,18,6,60,9,36.1,15.1,29.0,101325,0,0,0,0,0,0,0,0,0,0,0,14.4,0,0,9999,77777,9,999999999,0,0,0,99,0.2,0,0
2023,4,18,7,60,9,37.2,15.4,28.0,101325,0,0,0,0,0,0,0,0,0,0,0,14.0,0,0,9999,77777,9,999999999,0,0,0,99,0.2,0,0
2023,4,18,8,60,9,36.9,19.9,37.0,101325,0,0,0,0,0,0,0,0,0,0,0,17.3,0,0,9999,77777,9,999999999,0,0,0,99,0.2,0,0
2023,4,18,9,60,9,35.9,22.5,46.0,101325,0,0,0,0,0,0,0,0,0,0,0,19.7,0,0,9999,77777,9,999999999,0,0,0,99,0.2,0,0
2023,4,18,10,60,9,36.8,20.3,38.0,101325,0,0,0,0,0,0,0,0,0,0,0,21.3,0,0,9999,77777,9,999999999,0,0,0,99,0.2,0,0
2023,4,18,11,60,9,36.1,21.0,42.0,101325,0,0,0,0,0,0,0,0,0,0,0,23.5,0,0,9999,77777,9,999999999,0,0,0,99,0.2,0,0
2023,4,18,12,60,9,35.2,21.7,46.0,101325,0,0,0,0,0,0,0,0,0,0,0,21.2,0,0,9999,77777,9,999999999,0,0,0,99,0.2,0,0
2023,4,18,13,60,9,32.8,22.4,54.0,101325,0,0,0,0,0,0,0,0,0,0,0,21.2,0,0,9999,77777,9,999999999,0,0,0,99,0.2,0,0
2023,4,18,14,60,9,32.5,21.8,53.0,101325,0,0,0,0,0,0,0,0,0,0,0,21.9,0,0,9999,77777,9,999999999,0,0,0,99,0.2,0,0
2023,4,18,15,60,9,31.9,19.0,47.0,101325,0,0,0,0,0,0,0,0,0,0,0,24.0,0,0,9999,77777,9,999999999,0,0,0,99,0.2,0,0
2023,4,18,16,60,9,32.5,15.6,36.0,101325,0,0,0,0,0,0,0,0,0,0,0,21.3,0,0,9999,77777,9,999999999,0,0,0,99,0.2,0,0
2023,4,18,17,60,9,32.1,14.9,35.0,101325,0,0,0,0,0,0,0,0,0,0,0,18.0,0,0,9999,77777,9,999999999,0,0,0,99,0.2,0,0
2023,4,18,18,60,9,31.9,13.6,33.0,101325,0,0,0,0,0,0,0,0,0,0,0,16.7,0,0,9999,77777,9,999999999,0,0,0,99,0.2,0,0
2023,4,18,19,60,9,31.6,12.4,31.0,101325,0,0,0,0,0,0,0,0,0,0,0,13.7,0,0,9999,77777,9,999999999,0,0,0,99,0.2,0,0
2023,4,18,20,60,9,31.1,12.4,32.0,101325,0,0,0,0,0,0,0,0,0,0,0,11.4,0,0,9999,77777,9,999999999,0,0,0,99,0.2,0,0
2023,4,18,21,60,9,30.1,14.7,39.0,101325,0,0,0,0,0,0,0,0,0,0,0,14.2,0,0,9999,77777,9,999999999,0,0,0,99,0.2,0,0
2023,4,18,22,60,9,28.7,19.8,58.0,101325,0,0,0,0,0,0,0,0,0,0,0,16.0,0,0,9999,77777,9,999999999,0,0,0,99,0.2,0,0
2023,4,18,23,60,9,28.6,18.7,55.0,101325,0,0,0,0,0,0,0,0,0,0,0,14.8,0,0,9999,77777,9,999999999,0,0,0,99,0.2,0,0
2023,4,18,24,60,9,28.2,17.6,53.0,101325,0,0,0,0,0,0,0,0,0,0,0,12.3,0,0,9999,77777,9,999999999,0,0,0,99,0.2,0,0
2023,4,19,1,60,9,28.6,19.9,60.0,101325,0,0,0,0,0,0,0,0,0,0,0,14.4,0,0,9999,77777,9,999999999,0,0,0,99,0.2,0,0
2023,4,19,2,60,9,28.4,20.4,62.0,101325,0,0,0,0,0,0,0,0,0,0,0,10.5,0,0,9999,77777,9,999999999,0,0,0,99,0.2,0,0
2023,4,19,3,60,9,29.3,19.6,56.0,101325,0,0,0,0,0,0,0,0,0,0,0,7.1,0,0,9999,77777,9,999999999,0,0,0,99,0.2,0,0
2023,4,19,4,60,9,31.9,17.6,43.0,101325,0,0,0,0,0,0,0,0,0,0,0,5.9,0,0,9999,77777,9,999999999,0,0,0,99,0.2,0,0
2023,4,19,5,60,9,34.7,17.3,36.0,101325,0,0,0,0,0,0,0,0,0,0,0,8.2,0,0,9999,77777,9,999999999,0,0,0,99,0.2,0,0
2023,4,19,6,60,9,36.2,18.6,36.0,101325,0,0,0,0,0,0,0,0,0,0,0,11.4,0,0,9999,77777,9,999999999,0,0,0,99,0.2,0,0
2023,4,19,7,60,9,35.9,22.5,46.0,101325,0,0,0,0,0,0,0,0,0,0,0,15.3,0,0,9999,77777,9,999999999,0,0,0,99,0.2,0,0
2023,4,19,8,60,9,35.6,24.3,52.0,101325,0,0,0,0,0,0,0,0,0,0,0,18.5,0,0,9999,77777,9,999999999,0,0,0,99,0.2,0,0
2023,4,19,9,60,9,36.1,23.5,49.0,101325,0,0,0,0,0,0,0,0,0,0,0,20.0,0,0,9999,77777,9,999999999,0,0,0,99,0.2,0,0
2023,4,19,10,60,9,36.5,21.5,42.0,101325,0,0,0,0,0,0,0,0,0,0,0,18.3,0,0,9999,77777,9,999999999,0,0,0,99,0.2,0,0
2023,4,19,11,60,9,36.1,21.4,42.0,101325,0,0,0,0,0,0,0,0,0,0,0,24.1,0,0,9999,77777,9,999999999,0,0,0,99,0.2,0,0
2023,4,19,12,60,9,35.0,21.4,45.0,101325,0,0,0,0,0,0,0,0,0,0,0,21.9,0,0,9999,77777,9,999999999,0,0,0,99,0.2,0,0
2023,4,19,13,60,9,33.6,21.2,48.0,101325,0,0,0,0,0,0,0,0,0,0,0,23.6,0,0,9999,77777,9,999999999,0,0,0,99,0.2,0,0
2023,4,19,14,60,9,32.7,20.6,49.0,101325,0,0,0,0,0,0,0,0,0,0,0,23.0,0,0,9999,77777,9,999999999,0,0,0,99,0.2,0,0
2023,4,19,15,60,9,32.6,17.4,40.0,101325,0,0,0,0,0,0,0,0,0,0,0,22.9,0,0,9999,77777,9,999999999,0,0,0,99,0.2,0,0
2023,4,19,16,60,9,32.8,16.0,37.0,101325,0,0,0,0,0,0,0,0,0,0,0,21.0,0,0,9999,77777,9,999999999,0,0,0,99,0.2,0,0
2023,4,19,17,60,9,32.8,14.1,32.0,101325,0,0,0,0,0,0,0,0,0,0,0,19.1,0,0,9999,77777,9,999999999,0,0,0,99,0.2,0,0
2023,4,19,18,60,9,30.7,19.8,52.0,101325,0,0,0,0,0,0,0,0,0,0,0,16.0,0,0,9999,77777,9,999999999,0,0,0,99,0.2,0,0
2023,4,19,19,60,9,28.9,23.6,73.0,101325,0,0,0,0,0,0,0,0,0,0,0,16.7,0,0,9999,77777,9,999999999,0,0,0,99,0.2,0,0
2023,4,19,20,60,9,28.9,22.9,70.0,101325,0,0,0,0,0,0,0,0,0,0,0,14.3,0,0,9999,77777,9,999999999,0,0,0,99,0.2,0,0
2023,4,19,21,60,9,28.3,23.0,73.0,101325,0,0,0,0,0,0,0,0,0,0,0,11.1,0,0,9999,77777,9,999999999,0,0,0,99,0.2,0,0
2023,4,19,22,60,9,27.8,22.8,74.0,101325,0,0,0,0,0,0,0,0,0,0,0,9.5,0,0,9999,77777,9,999999999,0,0,0,99,0.2,0,0
2023,4,19,23,60,9,27.7,22.2,72.0,101325,0,0,0,0,0,0,0,0,0,0,0,10.2,0,0,9999,77777,9,999999999,0,0,0,99,0.2,0,0
2023,4,19,24,60,9,27.1,21.6,72.0,101325,0,0,0,0,0,0,0,0,0,0,0,6.4,0,0,9999,77777,9,999999999,0,0,0,99,0.2,0,0
2023,4,20,1,60,9,26.2,23.7,86.0,101325,0,0,0,0,0,0,0,0,0,0,0,4.7,0,0,9999,77777,9,999999999,0,0,0,99,0.2,0,0
2023,4,20,2,60,9,27.3,23.6,80.0,101325,0,0,0,0,0,0,0,0,0,0,0,2.1,0,0,9999,77777,9,999999999,0,0,0,99,0.2,0,0
2023,4,20,3,60,9,28.5,22.5,70.0,101325,0,0,0,0,0,0,0,0,0,0,0,3.0,0,0,9999,77777,9,999999999,0,0,0,99,0.2,0,0
2023,4,20,4,60,9,30.8,21.1,56.0,101325,0,0,0,0,0,0,0,0,0,0,0,7.4,0,0,9999,77777,9,999999999,0,0,0,99,0.2,0,0
2023,4,20,5,60,9,32.2,21.3,53.0,101325,0,0,0,0,0,0,0,0,0,0,0,11.2,0,0,9999,77777,9,999999999,0,0,0,99,0.2,0,0
2023,4,20,6,60,9,33.6,21.6,49.0,101325,0,0,0,0,0,0,0,0,0,0,0,13.0,0,0,9999,77777,9,999999999,0,0,0,99,0.2,0,0
2023,4,20,7,60,9,34.3,21.9,49.0,101325,0,0,0,0,0,0,0,0,0,0,0,17.2,0,0,9999,77777,9,999999999,0,0,0,99,0.2,0,0
2023,4,20,8,60,9,34.7,20.5,43.0,101325,0,0,0,0,0,0,0,0,0,0,0,21.5,0,0,9999,77777,9,999999999,0,0,0,99,0.2,0,0
2023,4,20,9,60,9,34.9,18.2,37.0,101325,0,0,0,0,0,0,0,0,0,0,0,23.0,0,0,9999,77777,9,999999999,0,0,0,99,0.2,0,0
2023,4,20,10,60,9,34.3,17.6,37.0,101325,0,0,0,0,0,0,0,0,0,0,0,23.3,0,0,9999,77777,9,999999999,0,0,0,99,0.2,0,0
2023,4,20,11,60,9,33.5,18.2,40.0,101325,0,0,0,0,0,0,0,0,0,0,0,20.5,0,0,9999,77777,9,999999999,0,0,0,99,0.2,0,0
2023,4,20,12,60,9,32.2,18.9,46.0,101325,0,0,0,0,0,0,0,0,0,0,0,20.4,0,0,9999,77777,9,999999999,0,0,0,99,0.2,0,0
2023,4,20,13,60,9,30.6,20.8,56.0,101325,0,0,0,0,0,0,0,0,0,0,0,21.6,0,0,9999,77777,9,999999999,0,0,0,99,0.2,0,0
2023,4,20,14,60,9,29.4,22.3,66.0,101325,0,0,0,0,0,0,0,0,0,0,0,19.4,0,0,9999,77777,9,999999999,0,0,0,99,0.2,0,0
2023,4,20,15,60,9,29.0,21.2,63.0,101325,0,0,0,0,0,0,0,0,0,0,0,19.9,0,0,9999,77777,9,999999999,0,0,0,99,0.2,0,0
2023,4,20,16,60,9,28.5,22.1,68.0,101325,0,0,0,0,0,0,0,0,0,0,0,19.6,0,0,9999,77777,9,999999999,0,0,0,99,0.2,0,0
2023,4,20,17,60,9,28.1,22.7,72.0,101325,0,0,0,0,0,0,0,0,0,0,0,18.1,0,0,9999,77777,9,999999999,0,0,0,99,0.2,0,0
2023,4,20,18,60,9,27.7,22.6,74.0,101325,0,0,0,0,0,0,0,0,0,0,0,8.9,0,0,9999,77777,9,999999999,0,0,0,99,0.2,0,0
2023,4,20,19,60,9,26.2,22.9,82.0,101325,0,0,0,0,0,0,0,0,0,0,0,5.8,0,0,9999,77777,9,999999999,0,0,0,99,0.2,0,0
2023,4,20,20,60,9,25.7,23.2,86.0,101325,0,0,0,0,0,0,0,0,0,0,0,5.7,0,0,9999,77777,9,999999999,0,0,0,99,0.2,0,0
2023,4,20,21,60,9,25.3,23.5,90.0,101325,0,0,0,0,0,0,0,0,0,0,0,5.3,0,0,9999,77777,9,999999999,0,0,0,99,0.2,0,0
2023,4,20,22,60,9,25.0,23.2,90.0,101325,0,0,0,0,0,0,0,0,0,0,0,4.8,0,0,9999,77777,9,999999999,0,0,0,99,0.2,0,0
2023,4,20,23,60,9,24.6,22.6,88.0,101325,0,0,0,0,0,0,0,0,0,0,0,5.1,0,0,9999,77777,9,999999999,0,0,0,99,0.2,0,0
2023,4,20,24,60,9,24.2,22.5,90.0,101325,0,0,0,0,0,0,0,0,0,0,0,5.9,0,0,9999,77777,9,999999999,0,0,0,99,0.2,0,0
2023,4,21,1,60,9,25.2,23.1,88.0,101325,0,0,0,0,0,0,0,0,0,0,0,5.4,0,0,9999,77777,9,999999999,0,0,0,99,0.2,0,0
2023,4,21,2,60,9,25.1,23.1,89.0,101325,0,0,0,0,0,0,0,0,0,0,0,4.7,0,0,9999,77777,9,999999999,0,0,0,99,0.2,0,0
2023,4,21,3,60,9,26.7,22.6,78.0,101325,0,0,0,0,0,0,0,0,0,0,0,5.2,0,0,9999,77777,9,999999999,0,0,0,99,0.2,0,0
2023,4,21,4,60,9,28.5,22.0,68.0,101325,0,0,0,0,0,0,0,0,0,0,0,3.4,0,0,9999,77777,9,999999999,0,0,0,99,0.2,0,0
2023,4,21,5,60,9,30.2,21.3,59.0,101325,0,0,0,0,0,0,0,0,0,0,0,4.6,0,0,9999,77777,9,999999999,0,0,0,99,0.2,0,0
2023,4,21,6,60,9,31.6,20.9,53.0,101325,0,0,0,0,0,0,0,0,0,0,0,9.6,0,0,9999,77777,9,999999999,0,0,0,99,0.2,0,0
2023,4,21,7,60,9,32.1,21.0,52.0,101325,0,0,0,0,0,0,0,0,0,0,0,14.0,0,0,9999,77777,9,999999999,0,0,0,99,0.2,0,0
2023,4,21,8,60,9,32.3,20.2,49.0,101325,0,0,0,0,0,0,0,0,0,0,0,16.5,0,0,9999,77777,9,999999999,0,0,0,99,0.2,0,0
2023,4,21,9,60,9,32.0,21.5,54.0,101325,0,0,0,0,0,0,0,0,0,0,0,18.4,0,0,9999,77777,9,999999999,0,0,0,99,0.2,0,0
2023,4,21,10,60,9,31.7,21.4,54.0,101325,0,0,0,0,0,0,0,0,0,0,0,19.3,0,0,9999,77777,9,999999999,0,0,0,99,0.2,0,0
2023,4,21,11,60,9,31.3,21.4,56.0,101325,0,0,0,0,0,0,0,0,0,0,0,19.7,0,0,9999,77777,9,999999999,0,0,0,99,0.2,0,0
2023,4,21,12,60,9,30.5,21.7,59.0,101325,0,0,0,0,0,0,0,0,0,0,0,19.2,0,0,9999,77777,9,999999999,0,0,0,99,0.2,0,0
2023,4,21,13,60,9,29.5,22.2,65.0,101325,0,0,0,0,0,0,0,0,0,0,0,19.4,0,0,9999,77777,9,999999999,0,0,0,99,0.2,0,0
2023,4,21,14,60,9,28.4,22.6,71.0,101325,0,0,0,0,0,0,0,0,0,0,0,18.5,0,0,9999,77777,9,999999999,0,0,0,99,0.2,0,0
2023,4,21,15,60,9,27.6,23.1,77.0,101325,0,0,0,0,0,0,0,0,0,0,0,16.3,0,0,9999,77777,9,999999999,0,0,0,99,0.2,0,0
2023,4,21,16,60,9,27.3,23.3,79.0,101325,0,0,0,0,0,0,0,0,0,0,0,13.0,0,0,9999,77777,9,999999999,0,0,0,99,0.2,0,0
2023,4,21,17,60,9,26.9,23.6,82.0,101325,0,0,0,0,0,0,0,0,0,0,0,9.2,0,0,9999,77777,9,999999999,0,0,0,99,0.2,0,0
2023,4,21,18,60,9,26.3,24.3,89.0,101325,0,0,0,0,0,0,0,0,0,0,0,5.8,0,0,9999,77777,9,999999999,0,0,0,99,0.2,0,0
2023,4,21,19,60,9,25.3,24.4,94.0,101325,0,0,0,0,0,0,0,0,0,0,0,5.8,0,0,9999,77777,9,999999999,0,0,0,99,0.2,0,0
2023,4,21,20,60,9,25.0,24.3,96.0,101325,0,0,0,0,0,0,0,0,0,0,0,5.5,0,0,9999,77777,9,999999999,0,0,0,99,0.2,0,0
2023,4,21,21,60,9,25.2,24.5,96.0,101325,0,0,0,0,0,0,0,0,0,0,0,3.6,0,0,9999,77777,9,999999999,0,0,0,99,0.2,0,0
2023,4,21,22,60,9,24.8,24.3,97.0,101325,0,0,0,0,0,0,0,0,0,0,0,3.7,0,0,9999,77777,9,999999999,0,0,0,99,0.2,0,0
2023,4,21,23,60,9,24.4,24.1,98.0,101325,0,0,0,0,0,0,0,0,0,0,0,3.7,0,0,9999,77777,9,999999999,0,0,0,99,0.2,0,0
2023,4,21,24,60,9,23.8,23.7,99.0,101325,0,0,0,0,0,0,0,0,0,0,0,4.3,0,0,9999,77777,9,999999999,0,0,0,99,0.2,0,0
2023,4,22,1,60,9,25.2,24.9,98.0,101325,0,0,0,0,0,0,0,0,0,0,0,2.1,0,0,9999,77777,9,999999999,0,0,0,99,0.2,0,0
2023,4,22,2,60,9,25.3,24.8,97.0,101325,0,0,0,0,0,0,0,0,0,0,0,3.6,0,0,9999,77777,9,999999999,0,0,0,99,0.2,0,0
2023,4,22,3,60,9,26.3,24.5,90.0,101325,0,0,0,0,0,0,0,0,0,0,0,4.9,0,0,9999,77777,9,999999999,0,0,0,99,0.2,0,0
2023,4,22,4,60,9,27.8,24.1,81.0,101325,0,0,0,0,0,0,0,0,0,0,0,3.1,0,0,9999,77777,9,999999999,0,0,0,99,0.2,0,0
2023,4,22,5,60,9,29.4,22.7,67.0,101325,0,0,0,0,0,0,0,0,0,0,0,1.5,0,0,9999,77777,9,999999999,0,0,0,99,0.2,0,0
2023,4,22,6,60,9,30.9,21.6,58.0,101325,0,0,0,0,0,0,0,0,0,0,0,5.8,0,0,9999,77777,9,999999999,0,0,0,99,0.2,0,0
2023,4,22,7,60,9,31.6,21.6,55.0,101325,0,0,0,0,0,0,0,0,0,0,0,13.0,0,0,9999,77777,9,999999999,0,0,0,99,0.2,0,0
2023,4,22,8,60,9,31.4,21.3,55.0,101325,0,0,0,0,0,0,0,0,0,0,0,17.2,0,0,9999,77777,9,999999999,0,0,0,99,0.2,0,0
2023,4,22,9,60,9,31.3,21.7,57.0,101325,0,0,0,0,0,0,0,0,0,0,0,18.5,0,0,9999,77777,9,999999999,0,0,0,99,0.2,0,0
2023,4,22,10,60,9,31.1,21.7,58.0,101325,0,0,0,0,0,0,0,0,0,0,0,19.1,0,0,9999,77777,9,999999999,0,0,0,99,0.2,0,0
2023,4,22,11,60,9,30.5,22.4,62.0,101325,0,0,0,0,0,0,0,0,0,0,0,18.6,0,0,9999,77777,9,999999999,0,0,0,99,0.2,0,0
2023,4,22,12,60,9,29.9,22.7,65.0,101325,0,0,0,0,0,0,0,0,0,0,0,18.8,0,0,9999,77777,9,999999999,0,0,0,99,0.2,0,0
2023,4,22,13,60,9,28.9,22.5,69.0,101325,0,0,0,0,0,0,0,0,0,0,0,18.1,0,0,9999,77777,9,999999999,0,0,0,99,0.2,0,0
2023,4,22,14,60,9,27.9,23.1,75.0,101325,0,0,0,0,0,0,0,0,0,0,0,17.3,0,0,9999,77777,9,999999999,0,0,0,99,0.2,0,0
2023,4,22,15,60,9,27.4,23.0,77.0,101325,0,0,0,0,0,0,0,0,0,0,0,14.8,0,0,9999,77777,9,999999999,0,0,0,99,0.2,0,0
2023,4,22,16,60,9,27.2,23.2,79.0,101325,0,0,0,0,0,0,0,0,0,0,0,12.8,0,0,9999,77777,9,999999999,0,0,0,99,0.2,0,0
2023,4,22,17,60,9,26.9,23.9,84.0,101325,0,0,0,0,0,0,0,0,0,0,0,9.8,0,0,9999,77777,9,999999999,0,0,0,99,0.2,0,0
2023,4,22,18,60,9,26.6,24.2,87.0,101325,0,0,0,0,0,0,0,0,0,0,0,7.1,0,0,9999,77777,9,999999999,0,0,0,99,0.2,0,0
2023,4,22,19,60,9,25.9,24.2,90.0,101325,0,0,0,0,0,0,0,0,0,0,0,4.1,0,0,9999,77777,9,999999999,0,0,0,99,0.2,0,0
2023,4,22,20,60,9,26.6,23.8,85.0,101325,0,0,0,0,0,0,0,0,0,0,0,2.3,0,0,9999,77777,9,999999999,0,0,0,99,0.2,0,0
2023,4,22,21,60,9,26.4,23.8,86.0,101325,0,0,0,0,0,0,0,0,0,0,0,1.5,0,0,9999,77777,9,999999999,0,0,0,99,0.2,0,0
2023,4,22,22,60,9,26.1,23.8,87.0,101325,0,0,0,0,0,0,0,0,0,0,0,2.5,0,0,9999,77777,9,999999999,0,0,0,99,0.2,0,0
2023,4,22,23,60,9,25.1,23.9,93.0,101325,0,0,0,0,0,0,0,0,0,0,0,3.6,0,0,9999,77777,9,999999999,0,0,0,99,0.2,0,0
2023,4,22,24,60,9,24.4,23.7,96.0,101325,0,0,0,0,0,0,0,0,0,0,0,4.7,0,0,9999,77777,9,999999999,0,0,0,99,0.2,0,0
2023,4,23,1,60,9,25.3,24.0,93.0,101325,0,0,0,0,0,0,0,0,0,0,0,3.7,0,0,9999,77777,9,999999999,0,0,0,99,0.2,0,0
2023,4,23,2,60,9,25.4,24.3,94.0,101325,0,0,0,0,0,0,0,0,0,0,0,3.0,0,0,9999,77777,9,999999999,0,0,0,99,0.2,0,0
2023,4,23,3,60,9,26.5,24.2,87.0,101325,0,0,0,0,0,0,0,0,0,0,0,5.8,0,0,9999,77777,9,999999999,0,0,0,99,0.2,0,0
2023,4,23,4,60,9,27.9,23.5,77.0,101325,0,0,0,0,0,0,0,0,0,0,0,3.3,0,0,9999,77777,9,999999999,0,0,0,99,0.2,0,0
2023,4,23,5,60,9,29.3,22.8,68.0,101325,0,0,0,0,0,0,0,0,0,0,0,3.4,0,0,9999,77777,9,999999999,0,0,0,99,0.2,0,0
2023,4,23,6,60,9,30.6,22.4,62.0,101325,0,0,0,0,0,0,0,0,0,0,0,7.9,0,0,9999,77777,9,999999999,0,0,0,99,0.2,0,0
2023,4,23,7,60,9,31.3,22.3,59.0,101325,0,0,0,0,0,0,0,0,0,0,0,13.0,0,0,9999,77777,9,999999999,0,0,0,99,0.2,0,0
2023,4,23,8,60,9,31.6,21.6,55.0,101325,0,0,0,0,0,0,0,0,0,0,0,16.2,0,0,9999,77777,9,999999999,0,0,0,99,0.2,0,0
2023,4,23,9,60,9,31.6,21.6,55.0,101325,0,0,0,0,0,0,0,0,0,0,0,19.4,0,0,9999,77777,9,999999999,0,0,0,99,0.2,0,0
2023,4,23,10,60,9,31.5,21.6,56.0,101325,0,0,0,0,0,0,0,0,0,0,0,21.7,0,0,9999,77777,9,999999999,0,0,0,99,0.2,0,0
2023,4,23,11,60,9,31.0,20.8,55.0,101325,0,0,0,0,0,0,0,0,0,0,0,19.8,0,0,9999,77777,9,999999999,0,0,0,99,0.2,0,0
2023,4,23,12,60,9,30.4,21.9,60.0,101325,0,0,0,0,0,0,0,0,0,0,0,17.7,0,0,9999,77777,9,999999999,0,0,0,99,0.2,0,0
2023,4,23,13,60,9,29.0,21.9,66.0,101325,0,0,0,0,0,0,0,0,0,0,0,19.2,0,0,9999,77777,9,999999999,0,0,0,99,0.2,0,0
2023,4,23,14,60,9,27.9,22.8,74.0,101325,0,0,0,0,0,0,0,0,0,0,0,19.1,0,0,9999,77777,9,999999999,0,0,0,99,0.2,0,0
2023,4,23,15,60,9,27.1,23.0,78.0,101325,0,0,0,0,0,0,0,0,0,0,0,18.5,0,0,9999,77777,9,999999999,0,0,0,99,0.2,0,0
2023,4,23,16,60,9,27.0,23.1,79.0,101325,0,0,0,0,0,0,0,0,0,0,0,17.5,0,0,9999,77777,9,999999999,0,0,0,99,0.2,0,0
2023,4,23,17,60,9,26.8,23.1,80.0,101325,0,0,0,0,0,0,0,0,0,0,0,15.3,0,0,9999,77777,9,999999999,0,0,0,99,0.2,0,0
2023,4,23,18,60,9,26.5,23.5,84.0,101325,0,0,0,0,0,0,0,0,0,0,0,15.6,0,0,9999,77777,9,999999999,0,0,0,99,0.2,0,0
2023,4,23,19,60,9,26.1,23.8,87.0,101325,0,0,0,0,0,0,0,0,0,0,0,11.6,0,0,9999,77777,9,999999999,0,0,0,99,0.2,0,0
2023,4,23,20,60,9,25.2,24.1,93.0,101325,0,0,0,0,0,0,0,0,0,0,0,5.4,0,0,9999,77777,9,999999999,0,0,0,99,0.2,0,0
2023,4,23,21,60,9,24.5,23.8,96.0,101325,0,0,0,0,0,0,0,0,0,0,0,4.3,0,0,9999,77777,9,999999999,0,0,0,99,0.2,0,0
2023,4,23,22,60,9,24.7,24.1,97.0,101325,0,0,0,0,0,0,0,0,0,0,0,7.3,0,0,9999,77777,9,999999999,0,0,0,99,0.2,0,0
2023,4,23,23,60,9,24.7,23.3,92.0,101325,0,0,0,0,0,0,0,0,0,0,0,8.7,0,0,9999,77777,9,999999999,0,0,0,99,0.2,0,0
2023,4,23,24,60,9,24.5,22.8,91.0,101325,0,0,0,0,0,0,0,0,0,0,0,6.1,0,0,9999,77777,9,999999999,0,0,0,99,0.2,0,0
2023,4,24,1,60,9,25.2,24.1,93.0,101325,0,0,0,0,0,0,0,0,0,0,0,4.3,0,0,9999,77777,9,999999999,0,0,0,99,0.2,0,0
2023,4,24,2,60,9,25.1,23.9,93.0,101325,0,0,0,0,0,0,0,0,0,0,0,4.0,0,0,9999,77777,9,999999999,0,0,0,99,0.2,0,0
2023,4,24,3,60,9,26.2,23.5,85.0,101325,0,0,0,0,0,0,0,0,0,0,0,5.9,0,0,9999,77777,9,999999999,0,0,0,99,0.2,0,0
2023,4,24,4,60,9,28.2,22.7,72.0,101325,0,0,0,0,0,0,0,0,0,0,0,4.7,0,0,9999,77777,9,999999999,0,0,0,99,0.2,0,0
2023,4,24,5,60,9,29.9,22.1,63.0,101325,0,0,0,0,0,0,0,0,0,0,0,2.2,0,0,9999,77777,9,999999999,0,0,0,99,0.2,0,0
2023,4,24,6,60,9,31.7,21.7,55.0,101325,0,0,0,0,0,0,0,0,0,0,0,6.6,0,0,9999,77777,9,999999999,0,0,0,99,0.2,0,0
2023,4,24,7,60,9,32.3,22.9,58.0,101325,0,0,0,0,0,0,0,0,0,0,0,11.2,0,0,9999,77777,9,999999999,0,0,0,99,0.2,0,0
2023,4,24,8,60,9,31.9,23.6,61.0,101325,0,0,0,0,0,0,0,0,0,0,0,15.8,0,0,9999,77777,9,999999999,0,0,0,99,0.2,0,0
2023,4,24,9,60,9,32.1,22.4,57.0,101325,0,0,0,0,0,0,0,0,0,0,0,17.0,0,0,9999,77777,9,999999999,0,0,0,99,0.2,0,0
2023,4,24,10,60,9,31.9,23.3,60.0,101325,0,0,0,0,0,0,0,0,0,0,0,19.6,0,0,9999,77777,9,999999999,0,0,0,99,0.2,0,0
2023,4,24,11,60,9,31.4,23.2,62.0,101325,0,0,0,0,0,0,0,0,0,0,0,21.9,0,0,9999,77777,9,999999999,0,0,0,99,0.2,0,0
2023,4,24,12,60,9,31.1,23.3,63.0,101325,0,0,0,0,0,0,0,0,0,0,0,22.5,0,0,9999,77777,9,999999999,0,0,0,99,0.2,0,0
2023,4,24,13,60,9,29.7,24.3,73.0,101325,0,0,0,0,0,0,0,0,0,0,0,22.3,0,0,9999,77777,9,999999999,0,0,0,99,0.2,0,0
2023,4,24,14,60,9,28.8,24.2,76.0,101325,0,0,0,0,0,0,0,0,0,0,0,21.1,0,0,9999,77777,9,999999999,0,0,0,99,0.2,0,0
2023,4,24,15,60,9,27.9,25.2,85.0,101325,0,0,0,0,0,0,0,0,0,0,0,19.6,0,0,9999,77777,9,999999999,0,0,0,99,0.2,0,0
2023,4,24,16,60,9,27.8,24.7,84.0,101325,0,0,0,0,0,0,0,0,0,0,0,15.5,0,0,9999,77777,9,999999999,0,0,0,99,0.2,0,0
2023,4,24,17,60,9,27.4,24.9,86.0,101325,0,0,0,0,0,0,0,0,0,0,0,8.8,0,0,9999,77777,9,999999999,0,0,0,99,0.2,0,0
2023,4,24,18,60,9,26.1,25.1,94.0,101325,0,0,0,0,0,0,0,0,0,0,0,4.9,0,0,9999,77777,9,999999999,0,0,0,99,0.2,0,0
2023,4,24,19,60,9,25.8,24.7,94.0,101325,0,0,0,0,0,0,0,0,0,0,0,5.1,0,0,9999,77777,9,999999999,0,0,0,99,0.2,0,0
2023,4,24,20,60,9,25.4,24.5,95.0,101325,0,0,0,0,0,0,0,0,0,0,0,4.8,0,0,9999,77777,9,999999999,0,0,0,99,0.2,0,0
2023,4,24,21,60,9,25.4,24.6,95.0,101325,0,0,0,0,0,0,0,0,0,0,0,5.2,0,0,9999,77777,9,999999999,0,0,0,99,0.2,0,0
2023,4,24,22,60,9,25.1,24.5,96.0,101325,0,0,0,0,0,0,0,0,0,0,0,5.1,0,0,9999,77777,9,999999999,0,0,0,99,0.2,0,0
2023,4,24,23,60,9,25.7,25.0,96.0,101325,0,0,0,0,0,0,0,0,0,0,0,6.9,0,0,9999,77777,9,999999999,0,0,0,99,0.2,0,0
2023,4,24,24,60,9,25.5,24.7,95.0,101325,0,0,0,0,0,0,0,0,0,0,0,5.4,0,0,9999,77777,9,999999999,0,0,0,99,0.2,0,0
2023,4,25,1,60,9,27.1,25.6,91.0,101325,0,0,0,0,0,0,0,0,0,0,0,1.0,0,0,9999,77777,9,999999999,0,0,0,99,0.2,0,0
2023,4,25,2,60,9,26.1,25.7,97.0,101325,0,0,0,0,0,0,0,0,0,0,0,6.8,0,0,9999,77777,9,999999999,0,0,0,99,0.2,0,0
2023,4,25,3,60,9,26.9,25.6,93.0,101325,0,0,0,0,0,0,0,0,0,0,0,8.8,0,0,9999,77777,9,999999999,0,0,0,99,0.2,0,0
2023,4,25,4,60,9,28.6,24.4,78.0,101325,0,0,0,0,0,0,0,0,0,0,0,3.8,0,0,9999,77777,9,999999999,0,0,0,99,0.2,0,0
2023,4,25,5,60,9,31.2,22.3,59.0,101325,0,0,0,0,0,0,0,0,0,0,0,3.2,0,0,9999,77777,9,999999999,0,0,0,99,0.2,0,0
2023,4,25,6,60,9,32.7,22.3,55.0,101325,0,0,0,0,0,0,0,0,0,0,0,8.1,0,0,9999,77777,9,999999999,0,0,0,99,0.2,0,0
2023,4,25,7,60,9,32.0,25.0,66.0,101325,0,0,0,0,0,0,0,0,0,0,0,15.5,0,0,9999,77777,9,999999999,0,0,0,99,0.2,0,0
2023,4,25,8,60,9,32.3,23.1,58.0,101325,0,0,0,0,0,0,0,0,0,0,0,18.4,0,0,9999,77777,9,999999999,0,0,0,99,0.2,0,0
2023,4,25,9,60,9,32.6,23.2,58.0,101325,0,0,0,0,0,0,0,0,0,0,0,18.8,0,0,9999,77777,9,999999999,0,0,0,99,0.2,0,0
2023,4,25,10,60,9,32.3,23.6,60.0,101325,0,0,0,0,0,0,0,0,0,0,0,19.1,0,0,9999,77777,9,999999999,0,0,0,99,0.2,0,0
2023,4,25,11,60,9,32.1,23.4,60.0,101325,0,0,0,0,0,0,0,0,0,0,0,18.8,0,0,9999,77777,9,999999999,0,0,0,99,0.2,0,0
2023,4,25,12,60,9,31.0,23.9,66.0,101325,0,0,0,0,0,0,0,0,0,0,0,21.3,0,0,9999,77777,9,999999999,0,0,0,99,0.2,0,0
2023,4,25,13,60,9,29.5,23.4,70.0,101325,0,0,0,0,0,0,0,0,0,0,0,16.5,0,0,9999,77777,9,999999999,0,0,0,99,0.2,0,0
2023,4,25,14,60,9,28.5,24.5,79.0,101325,0,0,0,0,0,0,0,0,0,0,0,15.5,0,0,9999,77777,9,999999999,0,0,0,99,0.2,0,0
2023,4,25,15,60,9,27.8,24.7,83.0,101325,0,0,0,0,0,0,0,0,0,0,0,9.7,0,0,9999,77777,9,999999999,0,0,0,99,0.2,0,0
2023,4,25,16,60,9,27.6,24.4,83.0,101325,0,0,0,0,0,0,0,0,0,0,0,4.0,0,0,9999,77777,9,999999999,0,0,0,99,0.2,0,0
2023,4,25,17,60,9,27.1,24.4,85.0,101325,0,0,0,0,0,0,0,0,0,0,0,3.0,0,0,9999,77777,9,999999999,0,0,0,99,0.2,0,0
2023,4,25,18,60,9,26.9,24.9,89.0,101325,0,0,0,0,0,0,0,0,0,0,0,5.0,0,0,9999,77777,9,999999999,0,0,0,99,0.2,0,0
2023,4,25,19,60,9,26.7,25.1,91.0,101325,0,0,0,0,0,0,0,0,0,0,0,6.3,0,0,9999,77777,9,999999999,0,0,0,99,0.2,0,0
2023,4,25,20,60,9,26.4,24.8,91.0,101325,0,0,0,0,0,0,0,0,0,0,0,5.1,0,0,9999,77777,9,999999999,0,0,0,99,0.2,0,0
2023,4,25,21,60,9,25.9,24.7,93.0,101325,0,0,0,0,0,0,0,0,0,0,0,4.4,0,0,9999,77777,9,999999999,0,0,0,99,0.2,0,0
2023,4,25,22,60,9,26.2,24.7,91.0,101325,0,0,0,0,0,0,0,0,0,0,0,4.1,0,0,9999,77777,9,999999999,0,0,0,99,0.2,0,0
2023,4,25,23,60,9,26.3,24.7,91.0,101325,0,0,0,0,0,0,0,0,0,0,0,7.0,0,0,9999,77777,9,999999999,0,0,0,99,0.2,0,0
2023,4,25,24,60,9,26.6,24.5,89.0,101325,0,0,0,0,0,0,0,0,0,0,0,9.0,0,0,9999,77777,9,999999999,0,0,0,99,0.2,0,0
2023,4,26,1,60,9,26.8,24.9,89.0,101325,0,0,0,0,0,0,0,0,0,0,0,7.7,0,0,9999,77777,9,999999999,0,0,0,99,0.2,0,0
2023,4,26,2,60,9,27.0,24.4,86.0,101325,0,0,0,0,0,0,0,0,0,0,0,6.4,0,0,9999,77777,9,999999999,0,0,0,99,0.2,0,0
2023,4,26,3,60,9,28.2,23.7,77.0,101325,0,0,0,0,0,0,0,0,0,0,0,10.5,0,0,9999,77777,9,999999999,0,0,0,99,0.2,0,0
2023,4,26,4,60,9,29.2,23.4,71.0,101325,0,0,0,0,0,0,0,0,0,0,0,11.9,0,0,9999,77777,9,999999999,0,0,0,99,0.2,0,0
2023,4,26,5,60,9,30.2,23.4,67.0,101325,0,0,0,0,0,0,0,0,0,0,0,12.7,0,0,9999,77777,9,999999999,0,0,0,99,0.2,0,0
2023,4,26,6,60,9,30.8,23.2,64.0,101325,0,0,0,0,0,0,0,0,0,0,0,14.5,0,0,9999,77777,9,999999999,0,0,0,99,0.2,0,0
2023,4,26,7,60,9,31.4,22.3,58.0,101325,0,0,0,0,0,0,0,0,0,0,0,16.8,0,0,9999,77777,9,999999999,0,0,0,99,0.2,0,0
2023,4,26,8,60,9,31.4,22.1,58.0,101325,0,0,0,0,0,0,0,0,0,0,0,18.8,0,0,9999,77777,9,999999999,0,0,0,99,0.2,0,0
2023,4,26,9,60,9,31.3,22.4,59.0,101325,0,0,0,0,0,0,0,0,0,0,0,20.2,0,0,9999,77777,9,999999999,0,0,0,99,0.2,0,0
2023,4,26,10,60,9,31.4,22.5,59.0,101325,0,0,0,0,0,0,0,0,0,0,0,19.6,0,0,9999,77777,9,999999999,0,0,0,99,0.2,0,0
2023,4,26,11,60,9,30.8,23.3,64.0,101325,0,0,0,0,0,0,0,0,0,0,0,19.7,0,0,9999,77777,9,999999999,0,0,0,99,0.2,0,0
2023,4,26,12,60,9,30.1,23.1,66.0,101325,0,0,0,0,0,0,0,0,0,0,0,19.8,0,0,9999,77777,9,999999999,0,0,0,99,0.2,0,0
2023,4,26,13,60,9,29.1,22.5,68.0,101325,0,0,0,0,0,0,0,0,0,0,0,20.2,0,0,9999,77777,9,999999999,0,0,0,99,0.2,0,0
2023,4,26,14,60,9,28.3,23.1,73.0,101325,0,0,0,0,0,0,0,0,0,0,0,21.0,0,0,9999,77777,9,999999999,0,0,0,99,0.2,0,0
2023,4,26,15,60,9,27.9,23.3,76.0,101325,0,0,0,0,0,0,0,0,0,0,0,18.8,0,0,9999,77777,9,999999999,0,0,0,99,0.2,0,0
2023,4,26,16,60,9,27.8,23.1,76.0,101325,0,0,0,0,0,0,0,0,0,0,0,14.5,0,0,9999,77777,9,999999999,0,0,0,99,0.2,0,0
2023,4,26,17,60,9,27.6,23.4,78.0,101325,0,0,0,0,0,0,0,0,0,0,0,8.7,0,0,9999,77777,9,999999999,0,0,0,99,0.2,0,0
2023,4,26,18,60,9,27.3,23.8,81.0,101325,0,0,0,0,0,0,0,0,0,0,0,4.3,0,0,9999,77777,9,999999999,0,0,0,99,0.2,0,0
2023,4,26,19,60,9,26.4,23.6,85.0,101325,0,0,0,0,0,0,0,0,0,0,0,3.6,0,0,9999,77777,9,999999999,0,0,0,99,0.2,0,0
2023,4,26,20,60,9,26.4,23.2,83.0,101325,0,0,0,0,0,0,0,0,0,0,0,3.4,0,0,9999,77777,9,999999999,0,0,0,99,0.2,0,0
2023,4,26,21,60,9,26.0,23.1,84.0,101325,0,0,0,0,0,0,0,0,0,0,0,3.6,0,0,9999,77777,9,999999999,0,0,0,99,0.2,0,0
2023,4,26,22,60,9,25.8,23.2,85.0,101325,0,0,0,0,0,0,0,0,0,0,0,4.0,0,0,9999,77777,9,999999999,0,0,0,99,0.2,0,0
2023,4,26,23,60,9,25.2,23.7,91.0,101325,0,0,0,0,0,0,0,0,0,0,0,4.6,0,0,9999,77777,9,999999999,0,0,0,99,0.2,0,0
2023,4,26,24,60,9,25.9,22.9,83.0,101325,0,0,0,0,0,0,0,0,0,0,0,3.2,0,0,9999,77777,9,999999999,0,0,0,99,0.2,0,0
2023,4,27,1,60,9,25.7,23.6,88.0,101325,0,0,0,0,0,0,0,0,0,0,0,4.6,0,0,9999,77777,9,999999999,0,0,0,99,0.2,0,0
2023,4,27,2,60,9,25.7,23.7,89.0,101325,0,0,0,0,0,0,0,0,0,0,0,3.0,0,0,9999,77777,9,999999999,0,0,0,99,0.2,0,0
2023,4,27,3,60,9,27.0,23.6,82.0,101325,0,0,0,0,0,0,0,0,0,0,0,5.1,0,0,9999,77777,9,999999999,0,0,0,99,0.2,0,0
2023,4,27,4,60,9,28.2,23.2,74.0,101325,0,0,0,0,0,0,0,0,0,0,0,3.9,0,0,9999,77777,9,999999999,0,0,0,99,0.2,0,0
2023,4,27,5,60,9,29.6,22.4,65.0,101325,0,0,0,0,0,0,0,0,0,0,0,2.1,0,0,9999,77777,9,999999999,0,0,0,99,0.2,0,0
2023,4,27,6,60,9,30.9,21.4,57.0,101325,0,0,0,0,0,0,0,0,0,0,0,2.0,0,0,9999,77777,9,999999999,0,0,0,99,0.2,0,0
2023,4,27,7,60,9,31.9,21.7,55.0,101325,0,0,0,0,0,0,0,0,0,0,0,8.9,0,0,9999,77777,9,999999999,0,0,0,99,0.2,0,0
2023,4,27,8,60,9,31.5,22.6,59.0,101325,0,0,0,0,0,0,0,0,0,0,0,15.5,0,0,9999,77777,9,999999999,0,0,0,99,0.2,0,0
2023,4,27,9,60,9,31.6,20.7,53.0,101325,0,0,0,0,0,0,0,0,0,0,0,17.7,0,0,9999,77777,9,999999999,0,0,0,99,0.2,0,0
2023,4,27,10,60,9,31.4,21.5,56.0,101325,0,0,0,0,0,0,0,0,0,0,0,18.7,0,0,9999,77777,9,999999999,0,0,0,99,0.2,0,0
2023,4,27,11,60,9,30.9,21.0,56.0,101325,0,0,0,0,0,0,0,0,0,0,0,19.5,0,0,9999,77777,9,999999999,0,0,0,99,0.2,0,0
2023,4,27,12,60,9,30.2,21.7,60.0,101325,0,0,0,0,0,0,0,0,0,0,0,20.0,0,0,9999,77777,9,999999999,0,0,0,99,0.2,0,0
2023,4,27,13,60,9,29.3,22.3,66.0,101325,0,0,0,0,0,0,0,0,0,0,0,21.7,0,0,9999,77777,9,999999999,0,0,0,99,0.2,0,0
2023,4,27,14,60,9,28.5,22.8,72.0,101325,0,0,0,0,0,0,0,0,0,0,0,19.9,0,0,9999,77777,9,999999999,0,0,0,99,0.2,0,0
2023,4,27,15,60,9,27.9,23.2,76.0,101325,0,0,0,0,0,0,0,0,0,0,0,15.2,0,0,9999,77777,9,999999999,0,0,0,99,0.2,0,0
2023,4,27,16,60,9,27.7,23.5,78.0,101325,0,0,0,0,0,0,0,0,0,0,0,11.3,0,0,9999,77777,9,999999999,0,0,0,99,0.2,0,0
2023,4,27,17,60,9,27.5,23.8,80.0,101325,0,0,0,0,0,0,0,0,0,0,0,9.2,0,0,9999,77777,9,999999999,0,0,0,99,0.2,0,0
2023,4,27,18,60,9,27.3,23.8,81.0,101325,0,0,0,0,0,0,0,0,0,0,0,8.3,0,0,9999,77777,9,999999999,0,0,0,99,0.2,0,0
2023,4,27,19,60,9,26.9,23.6,82.0,101325,0,0,0,0,0,0,0,0,0,0,0,5.5,0,0,9999,77777,9,999999999,0,0,0,99,0.2,0,0
2023,4,27,20,60,9,26.4,23.7,85.0,101325,0,0,0,0,0,0,0,0,0,0,0,4.3,0,0,9999,77777,9,999999999,0,0,0,99,0.2,0,0
2023,4,27,21,60,9,26.2,24.0,88.0,101325,0,0,0,0,0,0,0,0,0,0,0,4.0,0,0,9999,77777,9,999999999,0,0,0,99,0.2,0,0
2023,4,27,22,60,9,26.0,24.3,90.0,101325,0,0,0,0,0,0,0,0,0,0,0,5.0,0,0,9999,77777,9,999999999,0,0,0,99,0.2,0,0
2023,4,27,23,60,9,25.7,24.5,93.0,101325,0,0,0,0,0,0,0,0,0,0,0,4.8,0,0,9999,77777,9,999999999,0,0,0,99,0.2,0,0
2023,4,27,24,60,9,25.5,24.2,93.0,101325,0,0,0,0,0,0,0,0,0,0,0,7.7,0,0,9999,77777,9,999999999,0,0,0,99,0.2,0,0
2023,4,28,1,60,9,26.2,24.5,90.0,101325,0,0,0,0,0,0,0,0,0,0,0,6.0,0,0,9999,77777,9,999999999,0,0,0,99,0.2,0,0
2023,4,28,2,60,9,26.3,24.4,89.0,101325,0,0,0,0,0,0,0,0,0,0,0,6.5,0,0,9999,77777,9,999999999,0,0,0,99,0.2,0,0
2023,4,28,3,60,9,27.8,24.0,80.0,101325,0,0,0,0,0,0,0,0,0,0,0,9.2,0,0,9999,77777,9,999999999,0,0,0,99,0.2,0,0
2023,4,28,4,60,9,29.3,23.2,70.0,101325,0,0,0,0,0,0,0,0,0,0,0,8.7,0,0,9999,77777,9,999999999,0,0,0,99,0.2,0,0
2023,4,28,5,60,9,30.6,22.5,62.0,101325,0,0,0,0,0,0,0,0,0,0,0,6.1,0,0,9999,77777,9,999999999,0,0,0,99,0.2,0,0
2023,4,28,6,60,9,31.5,22.7,60.0,101325,0,0,0,0,0,0,0,0,0,0,0,8.9,0,0,9999,77777,9,999999999,0,0,0,99,0.2,0,0
2023,4,28,7,60,9,31.9,23.2,60.0,101325,0,0,0,0,0,0,0,0,0,0,0,13.6,0,0,9999,77777,9,999999999,0,0,0,99,0.2,0,0
2023,4,28,8,60,9,31.6,23.5,62.0,101325,0,0,0,0,0,0,0,0,0,0,0,17.3,0,0,9999,77777,9,999999999,0,0,0,99,0.2,0,0
2023,4,28,9,60,9,31.6,22.9,60.0,101325,0,0,0,0,0,0,0,0,0,0,0,18.2,0,0,9999,77777,9,999999999,0,0,0,99,0.2,0,0
2023,4,28,10,60,9,31.2,22.2,59.0,101325,0,0,0,0,0,0,0,0,0,0,0,17.8,0,0,9999,77777,9,999999999,0,0,0,99,0.2,0,0
2023,4,28,11,60,9,31.0,21.5,57.0,101325,0,0,0,0,0,0,0,0,0,0,0,16.7,0,0,9999,77777,9,999999999,0,0,0,99,0.2,0,0
2023,4,28,12,60,9,30.3,21.7,60.0,101325,0,0,0,0,0,0,0,0,0,0,0,17.4,0,0,9999,77777,9,999999999,0,0,0,99,0.2,0,0
2023,4,28,13,60,9,29.4,21.1,61.0,101325,0,0,0,0,0,0,0,0,0,0,0,17.2,0,0,9999,77777,9,999999999,0,0,0,99,0.2,0,0
2023,4,28,14,60,9,28.5,21.1,64.0,101325,0,0,0,0,0,0,0,0,0,0,0,14.6,0,0,9999,77777,9,999999999,0,0,0,99,0.2,0,0
2023,4,28,15,60,9,27.8,22.2,71.0,101325,0,0,0,0,0,0,0,0,0,0,0,13.8,0,0,9999,77777,9,999999999,0,0,0,99,0.2,0,0
2023,4,28,16,60,9,27.6,22.4,73.0,101325,0,0,0,0,0,0,0,0,0,0,0,9.7,0,0,9999,77777,9,999999999,0,0,0,99,0.2,0,0
2023,4,28,17,60,9,27.2,22.9,77.0,101325,0,0,0,0,0,0,0,0,0,0,0,7.2,0,0,9999,77777,9,999999999,0,0,0,99,0.2,0,0
2023,4,28,18,60,9,26.4,23.4,84.0,101325,0,0,0,0,0,0,0,0,0,0,0,4.5,0,0,9999,77777,9,999999999,0,0,0,99,0.2,0,0
2023,4,28,19,60,9,27.3,22.7,76.0,101325,0,0,0,0,0,0,0,0,0,0,0,1.1,0,0,9999,77777,9,999999999,0,0,0,99,0.2,0,0
2023,4,28,20,60,9,27.2,22.7,76.0,101325,0,0,0,0,0,0,0,0,0,0,0,1.9,0,0,9999,77777,9,999999999,0,0,0,99,0.2,0,0
2023,4,28,21,60,9,26.7,22.7,79.0,101325,0,0,0,0,0,0,0,0,0,0,0,3.4,0,0,9999,77777,9,999999999,0,0,0,99,0.2,0,0
2023,4,28,22,60,9,27.0,22.8,78.0,101325,0,0,0,0,0,0,0,0,0,0,0,2.9,0,0,9999,77777,9,999999999,0,0,0,99,0.2,0,0
2023,4,28,23,60,9,26.8,22.9,79.0,101325,0,0,0,0,0,0,0,0,0,0,0,2.4,0,0,9999,77777,9,999999999,0,0,0,99,0.2,0,0
2023,4,28,24,60,9,26.5,23.1,82.0,101325,0,0,0,0,0,0,0,0,0,0,0,2.4,0,0,9999,77777,9,999999999,0,0,0,99,0.2,0,0
2023,4,29,1,60,9,26.6,24.2,87.0,101325,0,0,0,0,0,0,0,0,0,0,0,6.9,0,0,9999,77777,9,999999999,0,0,0,99,0.2,0,0
2023,4,29,2,60,9,26.3,24.3,89.0,101325,0,0,0,0,0,0,0,0,0,0,0,5.5,0,0,9999,77777,9,999999999,0,0,0,99,0.2,0,0
2023,4,29,3,60,9,27.0,23.9,83.0,101325,0,0,0,0,0,0,0,0,0,0,0,2.3,0,0,9999,77777,9,999999999,0,0,0,99,0.2,0,0
2023,4,29,4,60,9,27.7,23.4,77.0,101325,0,0,0,0,0,0,0,0,0,0,0,3.3,0,0,9999,77777,9,999999999,0,0,0,99,0.2,0,0
2023,4,29,5,60,9,29.1,22.6,68.0,101325,0,0,0,0,0,0,0,0,0,0,0,3.5,0,0,9999,77777,9,999999999,0,0,0,99,0.2,0,0
2023,4,29,6,60,9,30.4,20.9,57.0,101325,0,0,0,0,0,0,0,0,0,0,0,5.4,0,0,9999,77777,9,999999999,0,0,0,99,0.2,0,0
2023,4,29,7,60,9,31.6,20.5,52.0,101325,0,0,0,0,0,0,0,0,0,0,0,11.6,0,0,9999,77777,9,999999999,0,0,0,99,0.2,0,0
2023,4,29,8,60,9,30.4,22.1,61.0,101325,0,0,0,0,0,0,0,0,0,0,0,17.3,0,0,9999,77777,9,999999999,0,0,0,99,0.2,0,0
2023,4,29,9,60,9,31.0,21.4,57.0,101325,0,0,0,0,0,0,0,0,0,0,0,14.5,0,0,9999,77777,9,999999999,0,0,0,99,0.2,0,0
2023,4,29,10,60,9,31.0,21.1,55.0,101325,0,0,0,0,0,0,0,0,0,0,0,14.8,0,0,9999,77777,9,999999999,0,0,0,99,0.2,0,0
2023,4,29,11,60,9,30.6,20.9,56.0,101325,0,0,0,0,0,0,0,0,0,0,0,14.6,0,0,9999,77777,9,999999999,0,0,0,99,0.2,0,0
2023,4,29,12,60,9,30.2,21.1,58.0,101325,0,0,0,0,0,0,0,0,0,0,0,13.5,0,0,9999,77777,9,999999999,0,0,0,99,0.2,0,0
2023,4,29,13,60,9,29.2,21.6,64.0,101325,0,0,0,0,0,0,0,0,0,0,0,20.1,0,0,9999,77777,9,999999999,0,0,0,99,0.2,0,0
2023,4,29,14,60,9,28.1,21.8,69.0,101325,0,0,0,0,0,0,0,0,0,0,0,19.9,0,0,9999,77777,9,999999999,0,0,0,99,0.2,0,0
2023,4,29,15,60,9,27.6,22.0,72.0,101325,0,0,0,0,0,0,0,0,0,0,0,18.8,0,0,9999,77777,9,999999999,0,0,0,99,0.2,0,0
2023,4,29,16,60,9,27.4,22.1,73.0,101325,0,0,0,0,0,0,0,0,0,0,0,16.9,0,0,9999,77777,9,999999999,0,0,0,99,0.2,0,0
2023,4,29,17,60,9,27.1,22.4,76.0,101325,0,0,0,0,0,0,0,0,0,0,0,12.1,0,0,9999,77777,9,999999999,0,0,0,99,0.2,0,0
2023,4,29,18,60,9,26.6,22.8,80.0,101325,0,0,0,0,0,0,0,0,0,0,0,6.5,0,0,9999,77777,9,999999999,0,0,0,99,0.2,0,0
2023,4,29,19,60,9,26.1,23.3,85.0,101325,0,0,0,0,0,0,0,0,0,0,0,4.6,0,0,9999,77777,9,999999999,0,0,0,99,0.2,0,0
2023,4,29,20,60,9,25.7,23.1,85.0,101325,0,0,0,0,0,0,0,0,0,0,0,4.2,0,0,9999,77777,9,999999999,0,0,0,99,0.2,0,0
2023,4,29,21,60,9,25.3,23.0,87.0,101325,0,0,0,0,0,0,0,0,0,0,0,3.7,0,0,9999,77777,9,999999999,0,0,0,99,0.2,0,0
2023,4,29,22,60,9,24.7,22.9,89.0,101325,0,0,0,0,0,0,0,0,0,0,0,3.3,0,0,9999,77777,9,999999999,0,0,0,99,0.2,0,0
2023,4,29,23,60,9,24.5,22.8,90.0,101325,0,0,0,0,0,0,0,0,0,0,0,3.6,0,0,9999,77777,9,999999999,0,0,0,99,0.2,0,0
2023,4,29,24,60,9,24.4,22.7,91.0,101325,0,0,0,0,0,0,0,0,0,0,0,3.4,0,0,9999,77777,9,999999999,0,0,0,99,0.2,0,0
2023,4,30,1,60,9,25.2,22.9,87.0,101325,0,0,0,0,0,0,0,0,0,0,0,3.3,0,0,9999,77777,9,999999999,0,0,0,99,0.2,0,0
2023,4,30,2,60,9,25.2,23.1,88.0,101325,0,0,0,0,0,0,0,0,0,0,0,2.6,0,0,9999,77777,9,999999999,0,0,0,99,0.2,0,0
2023,4,30,3,60,9,26.7,22.0,75.0,101325,0,0,0,0,0,0,0,0,0,0,0,2.8,0,0,9999,77777,9,999999999,0,0,0,99,0.2,0,0
2023,4,30,4,60,9,28.0,22.2,71.0,101325,0,0,0,0,0,0,0,0,0,0,0,1.6,0,0,9999,77777,9,999999999,0,0,0,99,0.2,0,0
2023,4,30,5,60,9,29.4,21.7,63.0,101325,0,0,0,0,0,0,0,0,0,0,0,3.0,0,0,9999,77777,9,999999999,0,0,0,99,0.2,0,0
2023,4,30,6,60,9,30.6,21.4,58.0,101325,0,0,0,0,0,0,0,0,0,0,0,7.1,0,0,9999,77777,9,999999999,0,0,0,99,0.2,0,0
2023,4,30,7,60,9,31.1,21.5,57.0,101325,0,0,0,0,0,0,0,0,0,0,0,9.5,0,0,9999,77777,9,999999999,0,0,0,99,0.2,0,0
2023,4,30,8,60,9,31.5,21.4,55.0,101325,0,0,0,0,0,0,0,0,0,0,0,14.1,0,0,9999,77777,9,999999999,0,0,0,99,0.2,0,0
2023,4,30,9,60,9,31.1,21.4,56.0,101325,0,0,0,0,0,0,0,0,0,0,0,17.5,0,0,9999,77777,9,999999999,0,0,0,99,0.2,0,0
2023,4,30,10,60,9,31.2,21.4,56.0,101325,0,0,0,0,0,0,0,0,0,0,0,18.6,0,0,9999,77777,9,999999999,0,0,0,99,0.2,0,0
2023,4,30,11,60,9,30.7,21.5,58.0,101325,0,0,0,0,0,0,0,0,0,0,0,19.5,0,0,9999,77777,9,999999999,0,0,0,99,0.2,0,0
2023,4,30,12,60,9,30.1,22.0,62.0,101325,0,0,0,0,0,0,0,0,0,0,0,19.5,0,0,9999,77777,9,999999999,0,0,0,99,0.2,0,0
2023,4,30,13,60,9,29.6,21.2,61.0,101325,0,0,0,0,0,0,0,0,0,0,0,16.6,0,0,9999,77777,9,999999999,0,0,0,99,0.2,0,0
2023,4,30,14,60,9,28.8,21.5,65.0,101325,0,0,0,0,0,0,0,0,0,0,0,15.6,0,0,9999,77777,9,999999999,0,0,0,99,0.2,0,0
2023,4,30,15,60,9,28.3,21.7,68.0,101325,0,0,0,0,0,0,0,0,0,0,0,12.4,0,0,9999,77777,9,999999999,0,0,0,99,0.2,0,0
2023,4,30,16,60,9,28.0,22.1,70.0,101325,0,0,0,0,0,0,0,0,0,0,0,11.3,0,0,9999,77777,9,999999999,0,0,0,99,0.2,0,0
2023,4,30,17,60,9,27.6,22.4,73.0,101325,0,0,0,0,0,0,0,0,0,0,0,9.5,0,0,9999,77777,9,999999999,0,0,0,99,0.2,0,0
2023,4,30,18,60,9,27.3,22.7,76.0,101325,0,0,0,0,0,0,0,0,0,0,0,6.9,0,0,9999,77777,9,999999999,0,0,0,99,0.2,0,0
2023,4,30,19,60,9,26.7,23.0,80.0,101325,0,0,0,0,0,0,0,0,0,0,0,5.1,0,0,9999,77777,9,999999999,0,0,0,99,0.2,0,0
2023,4,30,20,60,9,26.0,23.3,85.0,101325,0,0,0,0,0,0,0,0,0,0,0,4.3,0,0,9999,77777,9,999999999,0,0,0,99,0.2,0,0
2023,4,30,21,60,9,25.9,23.4,86.0,101325,0,0,0,0,0,0,0,0,0,0,0,4.6,0,0,9999,77777,9,999999999,0,0,0,99,0.2,0,0
2023,4,30,22,60,9,25.3,23.5,90.0,101325,0,0,0,0,0,0,0,0,0,0,0,4.0,0,0,9999,77777,9,999999999,0,0,0,99,0.2,0,0
2023,4,30,23,60,9,25.0,23.8,93.0,101325,0,0,0,0,0,0,0,0,0,0,0,3.6,0,0,9999,77777,9,999999999,0,0,0,99,0.2,0,0
2023,4,30,24,60,9,24.7,23.9,95.0,101325,0,0,0,0,0,0,0,0,0,0,0,3.9,0,0,9999,77777,9,999999999,0,0,0,99,0.2,0,0
2023,5,1,1,60,9,26.2,23.1,83.0,101325,0,0,0,0,0,0,0,0,0,0,0,4.7,0,0,9999,77777,9,999999999,0,0,0,99,0.2,0,0
2023,5,1,2,60,9,26.5,23.0,81.0,101325,0,0,0,0,0,0,0,0,0,0,0,6.4,0,0,9999,77777,9,999999999,0,0,0,99,0.2,0,0
2023,5,1,3,60,9,27.1,22.5,76.0,101325,0,0,0,0,0,0,0,0,0,0,0,8.2,0,0,9999,77777,9,999999999,0,0,0,99,0.2,0,0
2023,5,1,4,60,9,27.2,21.6,71.0,101325,0,0,0,0,0,0,0,0,0,0,0,6.2,0,0,9999,77777,9,999999999,0,0,0,99,0.2,0,0
2023,5,1,5,60,9,27.6,21.3,68.0,101325,0,0,0,0,0,0,0,0,0,0,0,5.4,0,0,9999,77777,9,999999999,0,0,0,99,0.2,0,0
2023,5,1,6,60,9,28.8,20.6,61.0,101325,0,0,0,0,0,0,0,0,0,0,0,3.0,0,0,9999,77777,9,999999999,0,0,0,99,0.2,0,0
2023,5,1,7,60,9,30.3,19.7,53.0,101325,0,0,0,0,0,0,0,0,0,0,0,6.1,0,0,9999,77777,9,999999999,0,0,0,99,0.2,0,0
2023,5,1,8,60,9,31.3,19.4,49.0,101325,0,0,0,0,0,0,0,0,0,0,0,8.0,0,0,9999,77777,9,999999999,0,0,0,99,0.2,0,0
2023,5,1,9,60,9,31.6,19.1,48.0,101325,0,0,0,0,0,0,0,0,0,0,0,12.3,0,0,9999,77777,9,999999999,0,0,0,99,0.2,0,0
2023,5,1,10,60,9,31.2,19.4,50.0,101325,0,0,0,0,0,0,0,0,0,0,0,15.1,0,0,9999,77777,9,999999999,0,0,0,99,0.2,0,0
2023,5,1,11,60,9,30.8,19.6,51.0,101325,0,0,0,0,0,0,0,0,0,0,0,15.9,0,0,9999,77777,9,999999999,0,0,0,99,0.2,0,0
2023,5,1,12,60,9,30.0,20.1,55.0,101325,0,0,0,0,0,0,0,0,0,0,0,15.2,0,0,9999,77777,9,999999999,0,0,0,99,0.2,0,0
2023,5,1,13,60,9,29.1,20.0,58.0,101325,0,0,0,0,0,0,0,0,0,0,0,15.3,0,0,9999,77777,9,999999999,0,0,0,99,0.2,0,0
2023,5,1,14,60,9,28.4,20.6,63.0,101325,0,0,0,0,0,0,0,0,0,0,0,12.8,0,0,9999,77777,9,999999999,0,0,0,99,0.2,0,0
2023,5,1,15,60,9,28.4,20.9,64.0,101325,0,0,0,0,0,0,0,0,0,0,0,12.9,0,0,9999,77777,9,999999999,0,0,0,99,0.2,0,0
2023,5,1,16,60,9,27.9,21.2,67.0,101325,0,0,0,0,0,0,0,0,0,0,0,9.8,0,0,9999,77777,9,999999999,0,0,0,99,0.2,0,0
2023,5,1,17,60,9,27.7,21.6,69.0,101325,0,0,0,0,0,0,0,0,0,0,0,8.8,0,0,9999,77777,9,999999999,0,0,0,99,0.2,0,0
2023,5,1,18,60,9,27.5,21.8,71.0,101325,0,0,0,0,0,0,0,0,0,0,0,7.4,0,0,9999,77777,9,999999999,0,0,0,99,0.2,0,0
2023,5,1,19,60,9,27.1,21.8,73.0,101325,0,0,0,0,0,0,0,0,0,0,0,5.7,0,0,9999,77777,9,999999999,0,0,0,99,0.2,0,0
2023,5,1,20,60,9,26.5,22.1,77.0,101325,0,0,0,0,0,0,0,0,0,0,0,4.1,0,0,9999,77777,9,999999999,0,0,0,99,0.2,0,0
2023,5,1,21,60,9,25.9,22.2,80.0,101325,0,0,0,0,0,0,0,0,0,0,0,5.4,0,0,9999,77777,9,999999999,0,0,0,99,0.2,0,0
2023,5,1,22,60,9,26.2,21.7,76.0,101325,0,0,0,0,0,0,0,0,0,0,0,3.8,0,0,9999,77777,9,999999999,0,0,0,99,0.2,0,0
2023,5,1,23,60,9,25.9,21.8,78.0,101325,0,0,0,0,0,0,0,0,0,0,0,3.3,0,0,9999,77777,9,999999999,0,0,0,99,0.2,0,0
2023,5,1,24,60,9,25.2,21.9,82.0,101325,0,0,0,0,0,0,0,0,0,0,0,7.2,0,0,9999,77777,9,999999999,0,0,0,99,0.2,0,0
2023,5,2,1,60,9,25.9,22.4,81.0,101325,0,0,0,0,0,0,0,0,0,0,0,3.3,0,0,9999,77777,9,999999999,0,0,0,99,0.2,0,0
2023,5,2,2,60,9,26.0,22.8,83.0,101325,0,0,0,0,0,0,0,0,0,0,0,2.6,0,0,9999,77777,9,999999999,0,0,0,99,0.2,0,0
2023,5,2,3,60,9,27.1,22.1,74.0,101325,0,0,0,0,0,0,0,0,0,0,0,2.8,0,0,9999,77777,9,999999999,0,0,0,99,0.2,0,0
2023,5,2,4,60,9,28.1,21.5,68.0,101325,0,0,0,0,0,0,0,0,0,0,0,2.3,0,0,9999,77777,9,999999999,0,0,0,99,0.2,0,0
2023,5,2,5,60,9,29.4,21.1,61.0,101325,0,0,0,0,0,0,0,0,0,0,0,4.0,0,0,9999,77777,9,999999999,0,0,0,99,0.2,0,0
2023,5,2,6,60,9,30.6,20.9,56.0,101325,0,0,0,0,0,0,0,0,0,0,0,5.8,0,0,9999,77777,9,999999999,0,0,0,99,0.2,0,0
2023,5,2,7,60,9,31.1,21.0,55.0,101325,0,0,0,0,0,0,0,0,0,0,0,9.5,0,0,9999,77777,9,999999999,0,0,0,99,0.2,0,0
2023,5,2,8,60,9,31.3,21.2,55.0,101325,0,0,0,0,0,0,0,0,0,0,0,12.4,0,0,9999,77777,9,999999999,0,0,0,99,0.2,0,0
2023,5,2,9,60,9,31.5,20.7,53.0,101325,0,0,0,0,0,0,0,0,0,0,0,14.4,0,0,9999,77777,9,999999999,0,0,0,99,0.2,0,0
2023,5,2,10,60,9,31.3,20.4,52.0,101325,0,0,0,0,0,0,0,0,0,0,0,14.8,0,0,9999,77777,9,999999999,0,0,0,99,0.2,0,0
2023,5,2,11,60,9,30.9,20.8,55.0,101325,0,0,0,0,0,0,0,0,0,0,0,16.2,0,0,9999,77777,9,999999999,0,0,0,99,0.2,0,0
2023,5,2,12,60,9,30.2,21.0,58.0,101325,0,0,0,0,0,0,0,0,0,0,0,16.6,0,0,9999,77777,9,999999999,0,0,0,99,0.2,0,0
2023,5,2,13,60,9,30.1,21.0,58.0,101325,0,0,0,0,0,0,0,0,0,0,0,16.3,0,0,9999,77777,9,999999999,0,0,0,99,0.2,0,0
2023,5,2,14,60,9,29.3,21.1,62.0,101325,0,0,0,0,0,0,0,0,0,0,0,13.1,0,0,9999,77777,9,999999999,0,0,0,99,0.2,0,0
2023,5,2,15,60,9,28.6,21.7,66.0,101325,0,0,0,0,0,0,0,0,0,0,0,8.9,0,0,9999,77777,9,999999999,0,0,0,99,0.2,0,0
2023,5,2,16,60,9,28.2,22.1,69.0,101325,0,0,0,0,0,0,0,0,0,0,0,7.0,0,0,9999,77777,9,999999999,0,0,0,99,0.2,0,0
2023,5,2,17,60,9,27.9,22.4,72.0,101325,0,0,0,0,0,0,0,0,0,0,0,5.6,0,0,9999,77777,9,999999999,0,0,0,99,0.2,0,0
2023,5,2,18,60,9,27.6,22.7,75.0,101325,0,0,0,0,0,0,0,0,0,0,0,5.6,0,0,9999,77777,9,999999999,0,0,0,99,0.2,0,0
2023,5,2,19,60,9,27.3,22.9,77.0,101325,0,0,0,0,0,0,0,0,0,0,0,5.7,0,0,9999,77777,9,999999999,0,0,0,99,0.2,0,0
2023,5,2,20,60,9,27.1,22.8,77.0,101325,0,0,0,0,0,0,0,0,0,0,0,6.3,0,0,9999,77777,9,999999999,0,0,0,99,0.2,0,0
2023,5,2,21,60,9,27.0,22.6,77.0,101325,0,0,0,0,0,0,0,0,0,0,0,6.6,0,0,9999,77777,9,999999999,0,0,0,99,0.2,0,0
2023,5,2,22,60,9,26.7,22.5,78.0,101325,0,0,0,0,0,0,0,0,0,0,0,6.5,0,0,9999,77777,9,999999999,0,0,0,99,0.2,0,0
2023,5,2,23,60,9,26.5,22.6,79.0,101325,0,0,0,0,0,0,0,0,0,0,0,6.6,0,0,9999,77777,9,999999999,0,0,0,99,0.2,0,0
2023,5,2,24,60,9,25.6,22.8,85.0,101325,0,0,0,0,0,0,0,0,0,0,0,4.8,0,0,9999,77777,9,999999999,0,0,0,99,0.2,0,0
2023,5,3,1,60,9,25.9,22.6,82.0,101325,0,0,0,0,0,0,0,0,0,0,0,5.0,0,0,9999,77777,9,999999999,0,0,0,99,0.2,0,0
2023,5,3,2,60,9,26.4,22.9,81.0,101325,0,0,0,0,0,0,0,0,0,0,0,2.5,0,0,9999,77777,9,999999999,0,0,0,99,0.2,0,0
2023,5,3,3,60,9,27.6,22.5,74.0,101325,0,0,0,0,0,0,0,0,0,0,0,3.8,0,0,9999,77777,9,999999999,0,0,0,99,0.2,0,0
2023,5,3,4,60,9,29.0,21.0,62.0,101325,0,0,0,0,0,0,0,0,0,0,0,3.0,0,0,9999,77777,9,999999999,0,0,0,99,0.2,0,0
2023,5,3,5,60,9,30.2,20.3,55.0,101325,0,0,0,0,0,0,0,0,0,0,0,4.0,0,0,9999,77777,9,999999999,0,0,0,99,0.2,0,0
2023,5,3,6,60,9,31.4,20.1,51.0,101325,0,0,0,0,0,0,0,0,0,0,0,7.6,0,0,9999,77777,9,999999999,0,0,0,99,0.2,0,0
2023,5,3,7,60,9,31.8,20.5,51.0,101325,0,0,0,0,0,0,0,0,0,0,0,13.0,0,0,9999,77777,9,999999999,0,0,0,99,0.2,0,0
2023,5,3,8,60,9,31.6,20.4,52.0,101325,0,0,0,0,0,0,0,0,0,0,0,16.7,0,0,9999,77777,9,999999999,0,0,0,99,0.2,0,0
2023,5,3,9,60,9,31.7,20.5,52.0,101325,0,0,0,0,0,0,0,0,0,0,0,17.1,0,0,9999,77777,9,999999999,0,0,0,99,0.2,0,0
2023,5,3,10,60,9,31.4,20.9,54.0,101325,0,0,0,0,0,0,0,0,0,0,0,17.4,0,0,9999,77777,9,999999999,0,0,0,99,0.2,0,0
2023,5,3,11,60,9,30.9,20.8,55.0,101325,0,0,0,0,0,0,0,0,0,0,0,18.6,0,0,9999,77777,9,999999999,0,0,0,99,0.2,0,0
2023,5,3,12,60,9,30.3,21.5,59.0,101325,0,0,0,0,0,0,0,0,0,0,0,17.7,0,0,9999,77777,9,999999999,0,0,0,99,0.2,0,0
2023,5,3,13,60,9,29.3,21.7,64.0,101325,0,0,0,0,0,0,0,0,0,0,0,17.3,0,0,9999,77777,9,999999999,0,0,0,99,0.2,0,0
2023,5,3,14,60,9,28.5,22.1,68.0,101325,0,0,0,0,0,0,0,0,0,0,0,14.3,0,0,9999,77777,9,999999999,0,0,0,99,0.2,0,0
2023,5,3,15,60,9,27.9,22.3,72.0,101325,0,0,0,0,0,0,0,0,0,0,0,11.7,0,0,9999,77777,9,999999999,0,0,0,99,0.2,0,0
2023,5,3,16,60,9,27.7,22.4,73.0,101325,0,0,0,0,0,0,0,0,0,0,0,10.1,0,0,9999,77777,9,999999999,0,0,0,99,0.2,0,0
2023,5,3,17,60,9,27.3,22.6,75.0,101325,0,0,0,0,0,0,0,0,0,0,0,7.2,0,0,9999,77777,9,999999999,0,0,0,99,0.2,0,0
2023,5,3,18,60,9,27.0,23.0,79.0,101325,0,0,0,0,0,0,0,0,0,0,0,6.3,0,0,9999,77777,9,999999999,0,0,0,99,0.2,0,0
2023,5,3,19,60,9,26.5,23.3,83.0,101325,0,0,0,0,0,0,0,0,0,0,0,4.6,0,0,9999,77777,9,999999999,0,0,0,99,0.2,0,0
2023,5,3,20,60,9,25.6,23.0,86.0,101325,0,0,0,0,0,0,0,0,0,0,0,4.7,0,0,9999,77777,9,999999999,0,0,0,99,0.2,0,0
2023,5,3,21,60,9,25.5,23.4,88.0,101325,0,0,0,0,0,0,0,0,0,0,0,4.1,0,0,9999,77777,9,999999999,0,0,0,99,0.2,0,0
2023,5,3,22,60,9,25.4,23.7,91.0,101325,0,0,0,0,0,0,0,0,0,0,0,4.6,0,0,9999,77777,9,999999999,0,0,0,99,0.2,0,0
2023,5,3,23,60,9,25.1,23.5,91.0,101325,0,0,0,0,0,0,0,0,0,0,0,4.2,0,0,9999,77777,9,999999999,0,0,0,99,0.2,0,0
2023,5,3,24,60,9,24.8,23.5,92.0,101325,0,0,0,0,0,0,0,0,0,0,0,4.8,0,0,9999,77777,9,999999999,0,0,0,99,0.2,0,0
2023,5,4,1,60,9,25.8,24.1,90.0,101325,0,0,0,0,0,0,0,0,0,0,0,3.6,0,0,9999,77777,9,999999999,0,0,0,99,0.2,0,0
2023,5,4,2,60,9,25.7,23.9,90.0,101325,0,0,0,0,0,0,0,0,0,0,0,5.5,0,0,9999,77777,9,999999999,0,0,0,99,0.2,0,0
2023,5,4,3,60,9,26.5,23.5,84.0,101325,0,0,0,0,0,0,0,0,0,0,0,5.4,0,0,9999,77777,9,999999999,0,0,0,99,0.2,0,0
2023,5,4,4,60,9,27.8,22.9,75.0,101325,0,0,0,0,0,0,0,0,0,0,0,3.5,0,0,9999,77777,9,999999999,0,0,0,99,0.2,0,0
2023,5,4,5,60,9,29.2,22.6,67.0,101325,0,0,0,0,0,0,0,0,0,0,0,1.5,0,0,9999,77777,9,999999999,0,0,0,99,0.2,0,0
2023,5,4,6,60,9,30.7,22.1,60.0,101325,0,0,0,0,0,0,0,0,0,0,0,5.8,0,0,9999,77777,9,999999999,0,0,0,99,0.2,0,0
2023,5,4,7,60,9,31.6,21.9,57.0,101325,0,0,0,0,0,0,0,0,0,0,0,11.6,0,0,9999,77777,9,999999999,0,0,0,99,0.2,0,0
2023,5,4,8,60,9,31.6,21.8,56.0,101325,0,0,0,0,0,0,0,0,0,0,0,15.4,0,0,9999,77777,9,999999999,0,0,0,99,0.2,0,0
2023,5,4,9,60,9,31.5,21.6,56.0,101325,0,0,0,0,0,0,0,0,0,0,0,18.7,0,0,9999,77777,9,999999999,0,0,0,99,0.2,0,0
2023,5,4,10,60,9,31.5,21.6,56.0,101325,0,0,0,0,0,0,0,0,0,0,0,15.8,0,0,9999,77777,9,999999999,0,0,0,99,0.2,0,0
2023,5,4,11,60,9,31.2,21.5,56.0,101325,0,0,0,0,0,0,0,0,0,0,0,16.3,0,0,9999,77777,9,999999999,0,0,0,99,0.2,0,0
2023,5,4,12,60,9,30.6,21.3,58.0,101325,0,0,0,0,0,0,0,0,0,0,0,16.2,0,0,9999,77777,9,999999999,0,0,0,99,0.2,0,0
2023,5,4,13,60,9,29.5,21.6,62.0,101325,0,0,0,0,0,0,0,0,0,0,0,15.1,0,0,9999,77777,9,999999999,0,0,0,99,0.2,0,0
2023,5,4,14,60,9,28.7,21.8,66.0,101325,0,0,0,0,0,0,0,0,0,0,0,13.4,0,0,9999,77777,9,999999999,0,0,0,99,0.2,0,0
2023,5,4,15,60,9,28.0,22.5,72.0,101325,0,0,0,0,0,0,0,0,0,0,0,12.7,0,0,9999,77777,9,999999999,0,0,0,99,0.2,0,0
2023,5,4,16,60,9,27.8,22.7,74.0,101325,0,0,0,0,0,0,0,0,0,0,0,11.0,0,0,9999,77777,9,999999999,0,0,0,99,0.2,0,0
2023,5,4,17,60,9,27.5,23.0,77.0,101325,0,0,0,0,0,0,0,0,0,0,0,9.7,0,0,9999,77777,9,999999999,0,0,0,99,0.2,0,0
2023,5,4,18,60,9,27.2,23.4,80.0,101325,0,0,0,0,0,0,0,0,0,0,0,7.4,0,0,9999,77777,9,999999999,0,0,0,99,0.2,0,0
2023,5,4,19,60,9,26.8,23.5,82.0,101325,0,0,0,0,0,0,0,0,0,0,0,5.4,0,0,9999,77777,9,999999999,0,0,0,99,0.2,0,0
2023,5,4,20,60,9,25.8,23.8,89.0,101325,0,0,0,0,0,0,0,0,0,0,0,4.8,0,0,9999,77777,9,999999999,0,0,0,99,0.2,0,0
2023,5,4,21,60,9,25.6,24.1,91.0,101325,0,0,0,0,0,0,0,0,0,0,0,4.0,0,0,9999,77777,9,999999999,0,0,0,99,0.2,0,0
2023,5,4,22,60,9,25.6,24.5,94.0,101325,0,0,0,0,0,0,0,0,0,0,0,3.7,0,0,9999,77777,9,999999999,0,0,0,99,0.2,0,0
2023,5,4,23,60,9,25.3,24.6,96.0,101325,0,0,0,0,0,0,0,0,0,0,0,4.1,0,0,9999,77777,9,999999999,0,0,0,99,0.2,0,0
2023,5,4,24,60,9,25.0,24.5,97.0,101325,0,0,0,0,0,0,0,0,0,0,0,3.8,0,0,9999,77777,9,999999999,0,0,0,99,0.2,0,0
2023,5,5,1,60,9,25.7,24.7,94.0,101325,0,0,0,0,0,0,0,0,0,0,0,4.2,0,0,9999,77777,9,999999999,0,0,0,99,0.2,0,0
2023,5,5,2,60,9,25.9,24.7,93.0,101325,0,0,0,0,0,0,0,0,0,0,0,2.5,0,0,9999,77777,9,999999999,0,0,0,99,0.2,0,0
2023,5,5,3,60,9,27.1,24.0,83.0,101325,0,0,0,0,0,0,0,0,0,0,0,4.7,0,0,9999,77777,9,999999999,0,0,0,99,0.2,0,0
2023,5,5,4,60,9,28.6,23.1,72.0,101325,0,0,0,0,0,0,0,0,0,0,0,3.9,0,0,9999,77777,9,999999999,0,0,0,99,0.2,0,0
2023,5,5,5,60,9,30.3,21.8,61.0,101325,0,0,0,0,0,0,0,0,0,0,0,2.2,0,0,9999,77777,9,999999999,0,0,0,99,0.2,0,0
2023,5,5,6,60,9,31.8,20.8,52.0,101325,0,0,0,0,0,0,0,0,0,0,0,5.4,0,0,9999,77777,9,999999999,0,0,0,99,0.2,0,0
2023,5,5,7,60,9,32.3,20.8,51.0,101325,0,0,0,0,0,0,0,0,0,0,0,10.4,0,0,9999,77777,9,999999999,0,0,0,99,0.2,0,0
2023,5,5,8,60,9,31.7,21.9,56.0,101325,0,0,0,0,0,0,0,0,0,0,0,15.5,0,0,9999,77777,9,999999999,0,0,0,99,0.2,0,0
2023,5,5,9,60,9,31.9,21.6,55.0,101325,0,0,0,0,0,0,0,0,0,0,0,17.8,0,0,9999,77777,9,999999999,0,0,0,99,0.2,0,0
2023,5,5,10,60,9,31.7,22.1,57.0,101325,0,0,0,0,0,0,0,0,0,0,0,18.9,0,0,9999,77777,9,999999999,0,0,0,99,0.2,0,0
2023,5,5,11,60,9,31.2,22.0,58.0,101325,0,0,0,0,0,0,0,0,0,0,0,18.6,0,0,9999,77777,9,999999999,0,0,0,99,0.2,0,0
2023,5,5,12,60,9,30.4,23.0,64.0,101325,0,0,0,0,0,0,0,0,0,0,0,20.1,0,0,9999,77777,9,999999999,0,0,0,99,0.2,0,0
2023,5,5,13,60,9,29.7,23.3,69.0,101325,0,0,0,0,0,0,0,0,0,0,0,19.2,0,0,9999,77777,9,999999999,0,0,0,99,0.2,0,0
2023,5,5,14,60,9,28.9,23.5,73.0,101325,0,0,0,0,0,0,0,0,0,0,0,15.7,0,0,9999,77777,9,999999999,0,0,0,99,0.2,0,0
2023,5,5,15,60,9,28.2,23.7,77.0,101325,0,0,0,0,0,0,0,0,0,0,0,12.1,0,0,9999,77777,9,999999999,0,0,0,99,0.2,0,0
2023,5,5,16,60,9,28.0,23.6,77.0,101325,0,0,0,0,0,0,0,0,0,0,0,9.5,0,0,9999,77777,9,999999999,0,0,0,99,0.2,0,0
2023,5,5,17,60,9,27.7,23.7,79.0,101325,0,0,0,0,0,0,0,0,0,0,0,6.6,0,0,9999,77777,9,999999999,0,0,0,99,0.2,0,0
2023,5,5,18,60,9,27.3,24.0,82.0,101325,0,0,0,0,0,0,0,0,0,0,0,5.9,0,0,9999,77777,9,999999999,0,0,0,99,0.2,0,0
2023,5,5,19,60,9,26.9,24.2,85.0,101325,0,0,0,0,0,0,0,0,0,0,0,6.2,0,0,9999,77777,9,999999999,0,0,0,99,0.2,0,0
2023,5,5,20,60,9,26.6,24.1,86.0,101325,0,0,0,0,0,0,0,0,0,0,0,5.4,0,0,9999,77777,9,999999999,0,0,0,99,0.2,0,0
2023,5,5,21,60,9,25.6,24.1,91.0,101325,0,0,0,0,0,0,0,0,0,0,0,5.2,0,0,9999,77777,9,999999999,0,0,0,99,0.2,0,0
2023,5,5,22,60,9,25.2,24.2,94.0,101325,0,0,0,0,0,0,0,0,0,0,0,4.8,0,0,9999,77777,9,999999999,0,0,0,99,0.2,0,0
2023,5,5,23,60,9,25.2,24.4,95.0,101325,0,0,0,0,0,0,0,0,0,0,0,4.0,0,0,9999,77777,9,999999999,0,0,0,99,0.2,0,0
2023,5,5,24,60,9,25.4,24.8,96.0,101325,0,0,0,0,0,0,0,0,0,0,0,4.1,0,0,9999,77777,9,999999999,0,0,0,99,0.2,0,0
2023,5,6,1,60,9,25.7,24.8,95.0,101325,0,0,0,0,0,0,0,0,0,0,0,4.1,0,0,9999,77777,9,999999999,0,0,0,99,0.2,0,0
2023,5,6,2,60,9,26.3,25.0,93.0,101325,0,0,0,0,0,0,0,0,0,0,0,3.9,0,0,9999,77777,9,999999999,0,0,0,99,0.2,0,0
2023,5,6,3,60,9,27.4,24.7,85.0,101325,0,0,0,0,0,0,0,0,0,0,0,4.3,0,0,9999,77777,9,999999999,0,0,0,99,0.2,0,0
2023,5,6,4,60,9,29.0,23.8,74.0,101325,0,0,0,0,0,0,0,0,0,0,0,5.6,0,0,9999,77777,9,999999999,0,0,0,99,0.2,0,0
2023,5,6,5,60,9,30.1,23.1,66.0,101325,0,0,0,0,0,0,0,0,0,0,0,7.2,0,0,9999,77777,9,999999999,0,0,0,99,0.2,0,0
2023,5,6,6,60,9,31.2,22.8,61.0,101325,0,0,0,0,0,0,0,0,0,0,0,10.8,0,0,9999,77777,9,999999999,0,0,0,99,0.2,0,0
2023,5,6,7,60,9,31.7,22.4,58.0,101325,0,0,0,0,0,0,0,0,0,0,0,14.4,0,0,9999,77777,9,999999999,0,0,0,99,0.2,0,0
2023,5,6,8,60,9,31.7,22.4,58.0,101325,0,0,0,0,0,0,0,0,0,0,0,16.5,0,0,9999,77777,9,999999999,0,0,0,99,0.2,0,0
2023,5,6,9,60,9,31.9,22.2,57.0,101325,0,0,0,0,0,0,0,0,0,0,0,19.7,0,0,9999,77777,9,999999999,0,0,0,99,0.2,0,0
2023,5,6,10,60,9,31.5,22.4,59.0,101325,0,0,0,0,0,0,0,0,0,0,0,21.8,0,0,9999,77777,9,999999999,0,0,0,99,0.2,0,0
2023,5,6,11,60,9,31.2,22.6,60.0,101325,0,0,0,0,0,0,0,0,0,0,0,22.4,0,0,9999,77777,9,999999999,0,0,0,99,0.2,0,0
2023,5,6,12,60,9,30.4,23.0,65.0,101325,0,0,0,0,0,0,0,0,0,0,0,22.3,0,0,9999,77777,9,999999999,0,0,0,99,0.2,0,0
2023,5,6,13,60,9,29.9,23.0,67.0,101325,0,0,0,0,0,0,0,0,0,0,0,20.6,0,0,9999,77777,9,999999999,0,0,0,99,0.2,0,0
2023,5,6,14,60,9,28.8,23.8,75.0,101325,0,0,0,0,0,0,0,0,0,0,0,17.6,0,0,9999,77777,9,999999999,0,0,0,99,0.2,0,0
2023,5,6,15,60,9,28.3,23.9,77.0,101325,0,0,0,0,0,0,0,0,0,0,0,14.5,0,0,9999,77777,9,999999999,0,0,0,99,0.2,0,0
2023,5,6,16,60,9,28.1,24.2,80.0,101325,0,0,0,0,0,0,0,0,0,0,0,13.4,0,0,9999,77777,9,999999999,0,0,0,99,0.2,0,0
2023,5,6,17,60,9,27.9,24.3,81.0,101325,0,0,0,0,0,0,0,0,0,0,0,12.0,0,0,9999,77777,9,999999999,0,0,0,99,0.2,0,0
2023,5,6,18,60,9,27.7,24.6,83.0,101325,0,0,0,0,0,0,0,0,0,0,0,9.8,0,0,9999,77777,9,999999999,0,0,0,99,0.2,0,0
2023,5,6,19,60,9,27.5,24.6,84.0,101325,0,0,0,0,0,0,0,0,0,0,0,9.0,0,0,9999,77777,9,999999999,0,0,0,99,0.2,0,0
2023,5,6,20,60,9,27.1,24.7,87.0,101325,0,0,0,0,0,0,0,0,0,0,0,4.4,0,0,9999,77777,9,999999999,0,0,0,99,0.2,0,0
2023,5,6,21,60,9,26.8,25.0,90.0,101325,0,0,0,0,0,0,0,0,0,0,0,4.0,0,0,9999,77777,9,999999999,0,0,0,99,0.2,0,0
2023,5,6,22,60,9,26.7,25.0,91.0,101325,0,0,0,0,0,0,0,0,0,0,0,4.2,0,0,9999,77777,9,999999999,0,0,0,99,0.2,0,0
2023,5,6,23,60,9,26.6,24.9,90.0,101325,0,0,0,0,0,0,0,0,0,0,0,4.0,0,0,9999,77777,9,999999999,0,0,0,99,0.2,0,0
2023,5,6,24,60,9,26.6,24.9,91.0,101325,0,0,0,0,0,0,0,0,0,0,0,4.2,0,0,9999,77777,9,999999999,0,0,0,99,0.2,0,0
2023,5,7,1,60,9,26.9,25.1,90.0,101325,0,0,0,0,0,0,0,0,0,0,0,4.8,0,0,9999,77777,9,999999999,0,0,0,99,0.2,0,0
2023,5,7,2,60,9,27.0,24.3,85.0,101325,0,0,0,0,0,0,0,0,0,0,0,6.3,0,0,9999,77777,9,999999999,0,0,0,99,0.2,0,0
2023,5,7,3,60,9,27.6,23.6,79.0,101325,0,0,0,0,0,0,0,0,0,0,0,2.5,0,0,9999,77777,9,999999999,0,0,0,99,0.2,0,0
2023,5,7,4,60,9,25.8,23.4,87.0,101325,0,0,0,0,0,0,0,0,0,0,0,7.2,0,0,9999,77777,9,999999999,0,0,0,99,0.2,0,0
2023,5,7,5,60,9,25.4,23.5,90.0,101325,0,0,0,0,0,0,0,0,0,0,0,4.4,0,0,9999,77777,9,999999999,0,0,0,99,0.2,0,0
2023,5,7,6,60,9,26.6,23.7,84.0,101325,0,0,0,0,0,0,0,0,0,0,0,5.6,0,0,9999,77777,9,999999999,0,0,0,99,0.2,0,0
2023,5,7,7,60,9,27.9,23.7,78.0,101325,0,0,0,0,0,0,0,0,0,0,0,5.8,0,0,9999,77777,9,999999999,0,0,0,99,0.2,0,0
2023,5,7,8,60,9,28.3,23.5,75.0,101325,0,0,0,0,0,0,0,0,0,0,0,8.7,0,0,9999,77777,9,999999999,0,0,0,99,0.2,0,0
2023,5,7,9,60,9,28.5,23.4,74.0,101325,0,0,0,0,0,0,0,0,0,0,0,10.8,0,0,9999,77777,9,999999999,0,0,0,99,0.2,0,0
2023,5,7,10,60,9,29.3,23.4,70.0,101325,0,0,0,0,0,0,0,0,0,0,0,12.3,0,0,9999,77777,9,999999999,0,0,0,99,0.2,0,0
2023,5,7,11,60,9,29.6,23.5,70.0,101325,0,0,0,0,0,0,0,0,0,0,0,13.2,0,0,9999,77777,9,999999999,0,0,0,99,0.2,0,0
2023,5,7,12,60,9,30.0,23.8,69.0,101325,0,0,0,0,0,0,0,0,0,0,0,12.4,0,0,9999,77777,9,999999999,0,0,0,99,0.2,0,0
2023,5,7,13,60,9,30.0,23.3,68.0,101325,0,0,0,0,0,0,0,0,0,0,0,15.6,0,0,9999,77777,9,999999999,0,0,0,99,0.2,0,0
2023,5,7,14,60,9,29.1,23.5,72.0,101325,0,0,0,0,0,0,0,0,0,0,0,16.4,0,0,9999,77777,9,999999999,0,0,0,99,0.2,0,0
2023,5,7,15,60,9,28.5,23.8,76.0,101325,0,0,0,0,0,0,0,0,0,0,0,13.0,0,0,9999,77777,9,999999999,0,0,0,99,0.2,0,0
2023,5,7,16,60,9,28.4,23.9,77.0,101325,0,0,0,0,0,0,0,0,0,0,0,11.7,0,0,9999,77777,9,999999999,0,0,0,99,0.2,0,0
2023,5,7,17,60,9,28.2,24.2,79.0,101325,0,0,0,0,0,0,0,0,0,0,0,10.0,0,0,9999,77777,9,999999999,0,0,0,99,0.2,0,0
2023,5,7,18,60,9,28.1,24.2,80.0,101325,0,0,0,0,0,0,0,0,0,0,0,9.5,0,0,9999,77777,9,999999999,0,0,0,99,0.2,0,0
2023,5,7,19,60,9,28.0,24.4,81.0,101325,0,0,0,0,0,0,0,0,0,0,0,8.9,0,0,9999,77777,9,999999999,0,0,0,99,0.2,0,0
2023,5,7,20,60,9,28.0,24.5,81.0,101325,0,0,0,0,0,0,0,0,0,0,0,7.6,0,0,9999,77777,9,999999999,0,0,0,99,0.2,0,0
2023,5,7,21,60,9,28.0,24.5,81.0,101325,0,0,0,0,0,0,0,0,0,0,0,8.4,0,0,9999,77777,9,999999999,0,0,0,99,0.2,0,0
2023,5,7,22,60,9,27.9,24.6,82.0,101325,0,0,0,0,0,0,0,0,0,0,0,8.6,0,0,9999,77777,9,999999999,0,0,0,99,0.2,0,0
2023,5,7,23,60,9,27.7,24.7,84.0,101325,0,0,0,0,0,0,0,0,0,0,0,6.0,0,0,9999,77777,9,999999999,0,0,0,99,0.2,0,0
2023,5,7,24,60,9,27.6,24.8,85.0,101325,0,0,0,0,0,0,0,0,0,0,0,4.5,0,0,9999,77777,9,999999999,0,0,0,99,0.2,0,0
2023,5,8,1,60,9,27.8,25.1,85.0,101325,0,0,0,0,0,0,0,0,0,0,0,5.1,0,0,9999,77777,9,999999999,0,0,0,99,0.2,0,0
2023,5,8,2,60,9,28.2,24.7,81.0,101325,0,0,0,0,0,0,0,0,0,0,0,7.4,0,0,9999,77777,9,999999999,0,0,0,99,0.2,0,0
2023,5,8,3,60,9,28.8,24.6,78.0,101325,0,0,0,0,0,0,0,0,0,0,0,8.7,0,0,9999,77777,9,999999999,0,0,0,99,0.2,0,0
2023,5,8,4,60,9,29.9,24.1,71.0,101325,0,0,0,0,0,0,0,0,0,0,0,5.7,0,0,9999,77777,9,999999999,0,0,0,99,0.2,0,0
2023,5,8,5,60,9,30.8,23.6,66.0,101325,0,0,0,0,0,0,0,0,0,0,0,6.5,0,0,9999,77777,9,999999999,0,0,0,99,0.2,0,0
2023,5,8,6,60,9,31.8,23.6,62.0,101325,0,0,0,0,0,0,0,0,0,0,0,10.2,0,0,9999,77777,9,999999999,0,0,0,99,0.2,0,0
2023,5,8,7,60,9,32.3,23.6,60.0,101325,0,0,0,0,0,0,0,0,0,0,0,13.0,0,0,9999,77777,9,999999999,0,0,0,99,0.2,0,0
2023,5,8,8,60,9,32.3,23.7,61.0,101325,0,0,0,0,0,0,0,0,0,0,0,16.0,0,0,9999,77777,9,999999999,0,0,0,99,0.2,0,0
2023,5,8,9,60,9,32.2,23.6,61.0,101325,0,0,0,0,0,0,0,0,0,0,0,18.6,0,0,9999,77777,9,999999999,0,0,0,99,0.2,0,0
2023,5,8,10,60,9,32.1,23.5,61.0,101325,0,0,0,0,0,0,0,0,0,0,0,19.0,0,0,9999,77777,9,999999999,0,0,0,99,0.2,0,0
2023,5,8,11,60,9,31.1,23.8,65.0,101325,0,0,0,0,0,0,0,0,0,0,0,18.4,0,0,9999,77777,9,999999999,0,0,0,99,0.2,0,0
2023,5,8,12,60,9,30.9,24.1,67.0,101325,0,0,0,0,0,0,0,0,0,0,0,19.7,0,0,9999,77777,9,999999999,0,0,0,99,0.2,0,0
2023,5,8,13,60,9,30.3,24.1,70.0,101325,0,0,0,0,0,0,0,0,0,0,0,18.6,0,0,9999,77777,9,999999999,0,0,0,99,0.2,0,0
2023,5,8,14,60,9,29.3,24.5,75.0,101325,0,0,0,0,0,0,0,0,0,0,0,17.1,0,0,9999,77777,9,999999999,0,0,0,99,0.2,0,0
2023,5,8,15,60,9,28.7,24.6,79.0,101325,0,0,0,0,0,0,0,0,0,0,0,13.0,0,0,9999,77777,9,999999999,0,0,0,99,0.2,0,0
2023,5,8,16,60,9,28.6,24.8,80.0,101325,0,0,0,0,0,0,0,0,0,0,0,13.0,0,0,9999,77777,9,999999999,0,0,0,99,0.2,0,0
2023,5,8,17,60,9,28.5,24.9,81.0,101325,0,0,0,0,0,0,0,0,0,0,0,7.7,0,0,9999,77777,9,999999999,0,0,0,99,0.2,0,0
2023,5,8,18,60,9,28.5,24.9,81.0,101325,0,0,0,0,0,0,0,0,0,0,0,4.5,0,0,9999,77777,9,999999999,0,0,0,99,0.2,0,0
2023,5,8,19,60,9,28.4,24.9,81.0,101325,0,0,0,0,0,0,0,0,0,0,0,4.1,0,0,9999,77777,9,999999999,0,0,0,99,0.2,0,0
2023,5,8,20,60,9,28.4,25.0,82.0,101325,0,0,0,0,0,0,0,0,0,0,0,3.6,0,0,9999,77777,9,999999999,0,0,0,99,0.2,0,0
2023,5,8,21,60,9,28.3,25.0,83.0,101325,0,0,0,0,0,0,0,0,0,0,0,5.1,0,0,9999,77777,9,999999999,0,0,0,99,0.2,0,0
2023,5,8,22,60,9,27.7,25.3,87.0,101325,0,0,0,0,0,0,0,0,0,0,0,2.6,0,0,9999,77777,9,999999999,0,0,0,99,0.2,0,0
2023,5,8,23,60,9,27.9,25.1,85.0,101325,0,0,0,0,0,0,0,0,0,0,0,2.9,0,0,9999,77777,9,999999999,0,0,0,99,0.2,0,0
2023,5,8,24,60,9,27.9,25.3,86.0,101325,0,0,0,0,0,0,0,0,0,0,0,6.9,0,0,9999,77777,9,999999999,0,0,0,99,0.2,0,0
2023,5,9,1,60,9,27.8,25.9,89.0,101325,0,0,0,0,0,0,0,0,0,0,0,4.5,0,0,9999,77777,9,999999999,0,0,0,99,0.2,0,0
2023,5,9,2,60,9,28.1,25.8,87.0,101325,0,0,0,0,0,0,0,0,0,0,0,4.2,0,0,9999,77777,9,999999999,0,0,0,99,0.2,0,0
2023,5,9,3,60,9,29.2,25.2,79.0,101325,0,0,0,0,0,0,0,0,0,0,0,3.8,0,0,9999,77777,9,999999999,0,0,0,99,0.2,0,0
2023,5,9,4,60,9,30.5,24.7,71.0,101325,0,0,0,0,0,0,0,0,0,0,0,4.3,0,0,9999,77777,9,999999999,0,0,0,99,0.2,0,0
2023,5,9,5,60,9,31.7,24.0,64.0,101325,0,0,0,0,0,0,0,0,0,0,0,4.0,0,0,9999,77777,9,999999999,0,0,0,99,0.2,0,0
2023,5,9,6,60,9,32.6,24.0,61.0,101325,0,0,0,0,0,0,0,0,0,0,0,8.0,0,0,9999,77777,9,999999999,0,0,0,99,0.2,0,0
2023,5,9,7,60,9,32.9,24.2,60.0,101325,0,0,0,0,0,0,0,0,0,0,0,13.3,0,0,9999,77777,9,999999999,0,0,0,99,0.2,0,0
2023,5,9,8,60,9,33.0,24.1,59.0,101325,0,0,0,0,0,0,0,0,0,0,0,13.7,0,0,9999,77777,9,999999999,0,0,0,99,0.2,0,0
2023,5,9,9,60,9,32.7,23.3,58.0,101325,0,0,0,0,0,0,0,0,0,0,0,15.9,0,0,9999,77777,9,999999999,0,0,0,99,0.2,0,0
2023,5,9,10,60,9,32.9,23.0,56.0,101325,0,0,0,0,0,0,0,0,0,0,0,17.4,0,0,9999,77777,9,999999999,0,0,0,99,0.2,0,0
2023,5,9,11,60,9,32.3,23.6,60.0,101325,0,0,0,0,0,0,0,0,0,0,0,17.4,0,0,9999,77777,9,999999999,0,0,0,99,0.2,0,0
2023,5,9,12,60,9,31.7,23.7,63.0,101325,0,0,0,0,0,0,0,0,0,0,0,17.9,0,0,9999,77777,9,999999999,0,0,0,99,0.2,0,0
2023,5,9,13,60,9,31.0,24.5,68.0,101325,0,0,0,0,0,0,0,0,0,0,0,19.8,0,0,9999,77777,9,999999999,0,0,0,99,0.2,0,0
2023,5,9,14,60,9,30.1,25.2,75.0,101325,0,0,0,0,0,0,0,0,0,0,0,18.9,0,0,9999,77777,9,999999999,0,0,0,99,0.2,0,0
2023,5,9,15,60,9,29.1,25.8,82.0,101325,0,0,0,0,0,0,0,0,0,0,0,16.8,0,0,9999,77777,9,999999999,0,0,0,99,0.2,0,0
2023,5,9,16,60,9,29.0,26.2,85.0,101325,0,0,0,0,0,0,0,0,0,0,0,14.5,0,0,9999,77777,9,999999999,0,0,0,99,0.2,0,0
2023,5,9,17,60,9,28.8,26.2,86.0,101325,0,0,0,0,0,0,0,0,0,0,0,11.2,0,0,9999,77777,9,999999999,0,0,0,99,0.2,0,0
2023,5,9,18,60,9,28.6,26.4,88.0,101325,0,0,0,0,0,0,0,0,0,0,0,4.7,0,0,9999,77777,9,999999999,0,0,0,99,0.2,0,0
2023,5,9,19,60,9,28.1,26.6,92.0,101325,0,0,0,0,0,0,0,0,0,0,0,2.9,0,0,9999,77777,9,999999999,0,0,0,99,0.2,0,0
2023,5,9,20,60,9,27.9,26.5,92.0,101325,0,0,0,0,0,0,0,0,0,0,0,2.4,0,0,9999,77777,9,999999999,0,0,0,99,0.2,0,0
2023,5,9,21,60,9,28.0,26.6,92.0,101325,0,0,0,0,0,0,0,0,0,0,0,4.3,0,0,9999,77777,9,999999999,0,0,0,99,0.2,0,0
2023,5,9,22,60,9,27.8,26.6,93.0,101325,0,0,0,0,0,0,0,0,0,0,0,3.5,0,0,9999,77777,9,999999999,0,0,0,99,0.2,0,0
2023,5,9,23,60,9,27.7,26.5,93.0,101325,0,0,0,0,0,0,0,0,0,0,0,3.6,0,0,9999,77777,9,999999999,0,0,0,99,0.2,0,0
2023,5,9,24,60,9,27.3,26.5,95.0,101325,0,0,0,0,0,0,0,0,0,0,0,3.5,0,0,9999,77777,9,999999999,0,0,0,99,0.2,0,0
2023,5,10,1,60,9,27.5,27.0,97.0,101325,0,0,0,0,0,0,0,0,0,0,0,3.6,0,0,9999,77777,9,999999999,0,0,0,99,0.2,0,0
2023,5,10,2,60,9,27.8,27.2,97.0,101325,0,0,0,0,0,0,0,0,0,0,0,4.6,0,0,9999,77777,9,999999999,0,0,0,99,0.2,0,0
2023,5,10,3,60,9,29.0,26.7,87.0,101325,0,0,0,0,0,0,0,0,0,0,0,7.0,0,0,9999,77777,9,999999999,0,0,0,99,0.2,0,0
2023,5,10,4,60,9,31.2,24.6,68.0,101325,0,0,0,0,0,0,0,0,0,0,0,3.9,0,0,9999,77777,9,999999999,0,0,0,99,0.2,0,0
2023,5,10,5,60,9,33.1,22.8,55.0,101325,0,0,0,0,0,0,0,0,0,0,0,4.3,0,0,9999,77777,9,999999999,0,0,0,99,0.2,0,0
2023,5,10,6,60,9,34.0,23.7,55.0,101325,0,0,0,0,0,0,0,0,0,0,0,10.2,0,0,9999,77777,9,999999999,0,0,0,99,0.2,0,0
2023,5,10,7,60,9,33.8,24.5,58.0,101325,0,0,0,0,0,0,0,0,0,0,0,14.9,0,0,9999,77777,9,999999999,0,0,0,99,0.2,0,0
2023,5,10,8,60,9,33.9,24.1,57.0,101325,0,0,0,0,0,0,0,0,0,0,0,17.1,0,0,9999,77777,9,999999999,0,0,0,99,0.2,0,0
2023,5,10,9,60,9,33.7,25.1,61.0,101325,0,0,0,0,0,0,0,0,0,0,0,19.8,0,0,9999,77777,9,999999999,0,0,0,99,0.2,0,0
2023,5,10,10,60,9,33.4,25.3,63.0,101325,0,0,0,0,0,0,0,0,0,0,0,20.7,0,0,9999,77777,9,999999999,0,0,0,99,0.2,0,0
2023,5,10,11,60,9,32.5,25.4,66.0,101325,0,0,0,0,0,0,0,0,0,0,0,21.9,0,0,9999,77777,9,999999999,0,0,0,99,0.2,0,0
2023,5,10,12,60,9,32.3,25.0,66.0,101325,0,0,0,0,0,0,0,0,0,0,0,21.9,0,0,9999,77777,9,999999999,0,0,0,99,0.2,0,0
2023,5,10,13,60,9,31.1,25.8,73.0,101325,0,0,0,0,0,0,0,0,0,0,0,19.0,0,0,9999,77777,9,999999999,0,0,0,99,0.2,0,0
2023,5,10,14,60,9,30.1,26.1,79.0,101325,0,0,0,0,0,0,0,0,0,0,0,15.7,0,0,9999,77777,9,999999999,0,0,0,99,0.2,0,0
2023,5,10,15,60,9,29.6,26.1,82.0,101325,0,0,0,0,0,0,0,0,0,0,0,10.7,0,0,9999,77777,9,999999999,0,0,0,99,0.2,0,0
2023,5,10,16,60,9,29.3,26.6,86.0,101325,0,0,0,0,0,0,0,0,0,0,0,5.8,0,0,9999,77777,9,999999999,0,0,0,99,0.2,0,0
2023,5,10,17,60,9,28.6,26.5,88.0,101325,0,0,0,0,0,0,0,0,0,0,0,3.3,0,0,9999,77777,9,999999999,0,0,0,99,0.2,0,0
2023,5,10,18,60,9,28.4,26.3,88.0,101325,0,0,0,0,0,0,0,0,0,0,0,3.3,0,0,9999,77777,9,999999999,0,0,0,99,0.2,0,0
2023,5,10,19,60,9,28.2,26.7,91.0,101325,0,0,0,0,0,0,0,0,0,0,0,4.3,0,0,9999,77777,9,999999999,0,0,0,99,0.2,0,0
2023,5,10,20,60,9,28.1,27.0,94.0,101325,0,0,0,0,0,0,0,0,0,0,0,5.4,0,0,9999,77777,9,999999999,0,0,0,99,0.2,0,0
2023,5,10,21,60,9,27.8,26.7,94.0,101325,0,0,0,0,0,0,0,0,0,0,0,5.0,0,0,9999,77777,9,999999999,0,0,0,99,0.2,0,0
2023,5,10,22,60,9,27.4,26.2,93.0,101325,0,0,0,0,0,0,0,0,0,0,0,5.1,0,0,9999,77777,9,999999999,0,0,0,99,0.2,0,0
2023,5,10,23,60,9,28.4,26.6,90.0,101325,0,0,0,0,0,0,0,0,0,0,0,0.7,0,0,9999,77777,9,999999999,0,0,0,99,0.2,0,0
2023,5,10,24,60,9,26.3,26.1,99.0,101325,0,0,0,0,0,0,0,0,0,0,0,5.8,0,0,9999,77777,9,999999999,0,0,0,99,0.2,0,0
2023,5,11,1,60,9,27.8,26.6,93.0,101325,0,0,0,0,0,0,0,0,0,0,0,4.8,0,0,9999,77777,9,999999999,0,0,0,99,0.2,0,0
2023,5,11,2,60,9,28.1,27.0,94.0,101325,0,0,0,0,0,0,0,0,0,0,0,5.1,0,0,9999,77777,9,999999999,0,0,0,99,0.2,0,0
2023,5,11,3,60,9,29.3,27.0,87.0,101325,0,0,0,0,0,0,0,0,0,0,0,10.7,0,0,9999,77777,9,999999999,0,0,0,99,0.2,0,0
2023,5,11,4,60,9,30.5,26.9,81.0,101325,0,0,0,0,0,0,0,0,0,0,0,8.9,0,0,9999,77777,9,999999999,0,0,0,99,0.2,0,0
2023,5,11,5,60,9,31.9,26.3,72.0,101325,0,0,0,0,0,0,0,0,0,0,0,8.3,0,0,9999,77777,9,999999999,0,0,0,99,0.2,0,0
2023,5,11,6,60,9,33.3,25.6,64.0,101325,0,0,0,0,0,0,0,0,0,0,0,8.5,0,0,9999,77777,9,999999999,0,0,0,99,0.2,0,0
2023,5,11,7,60,9,34.1,25.4,61.0,101325,0,0,0,0,0,0,0,0,0,0,0,12.5,0,0,9999,77777,9,999999999,0,0,0,99,0.2,0,0
2023,5,11,8,60,9,34.3,24.8,58.0,101325,0,0,0,0,0,0,0,0,0,0,0,16.1,0,0,9999,77777,9,999999999,0,0,0,99,0.2,0,0
2023,5,11,9,60,9,34.3,24.8,58.0,101325,0,0,0,0,0,0,0,0,0,0,0,16.6,0,0,9999,77777,9,999999999,0,0,0,99,0.2,0,0
2023,5,11,10,60,9,34.5,24.5,56.0,101325,0,0,0,0,0,0,0,0,0,0,0,15.7,0,0,9999,77777,9,999999999,0,0,0,99,0.2,0,0
2023,5,11,11,60,9,34.4,23.7,54.0,101325,0,0,0,0,0,0,0,0,0,0,0,15.5,0,0,9999,77777,9,999999999,0,0,0,99,0.2,0,0
2023,5,11,12,60,9,33.9,23.4,54.0,101325,0,0,0,0,0,0,0,0,0,0,0,15.7,0,0,9999,77777,9,999999999,0,0,0,99,0.2,0,0
2023,5,11,13,60,9,32.0,23.8,62.0,101325,0,0,0,0,0,0,0,0,0,0,0,18.9,0,0,9999,77777,9,999999999,0,0,0,99,0.2,0,0
2023,5,11,14,60,9,30.7,25.7,75.0,101325,0,0,0,0,0,0,0,0,0,0,0,15.1,0,0,9999,77777,9,999999999,0,0,0,99,0.2,0,0
2023,5,11,15,60,9,29.5,26.9,86.0,101325,0,0,0,0,0,0,0,0,0,0,0,8.4,0,0,9999,77777,9,999999999,0,0,0,99,0.2,0,0
2023,5,11,16,60,9,29.4,27.1,87.0,101325,0,0,0,0,0,0,0,0,0,0,0,0.7,0,0,9999,77777,9,999999999,0,0,0,99,0.2,0,0
2023,5,11,17,60,9,28.6,26.7,89.0,101325,0,0,0,0,0,0,0,0,0,0,0,3.4,0,0,9999,77777,9,999999999,0,0,0,99,0.2,0,0
2023,5,11,18,60,9,28.0,26.5,92.0,101325,0,0,0,0,0,0,0,0,0,0,0,3.7,0,0,9999,77777,9,999999999,0,0,0,99,0.2,0,0
2023,5,11,19,60,9,28.2,26.9,93.0,101325,0,0,0,0,0,0,0,0,0,0,0,5.9,0,0,9999,77777,9,999999999,0,0,0,99,0.2,0,0
2023,5,11,20,60,9,28.0,26.9,94.0,101325,0,0,0,0,0,0,0,0,0,0,0,5.4,0,0,9999,77777,9,999999999,0,0,0,99,0.2,0,0
2023,5,11,21,60,9,27.9,26.5,92.0,101325,0,0,0,0,0,0,0,0,0,0,0,6.2,0,0,9999,77777,9,999999999,0,0,0,99,0.2,0,0
2023,5,11,22,60,9,28.1,26.1,89.0,101325,0,0,0,0,0,0,0,0,0,0,0,8.2,0,0,9999,77777,9,999999999,0,0,0,99,0.2,0,0
2023,5,11,23,60,9,27.5,26.0,92.0,101325,0,0,0,0,0,0,0,0,0,0,0,5.8,0,0,9999,77777,9,999999999,0,0,0,99,0.2,0,0
2023,5,11,24,60,9,27.5,26.6,95.0,101325,0,0,0,0,0,0,0,0,0,0,0,8.9,0,0,9999,77777,9,999999999,0,0,0,99,0.2,0,0
2023,5,12,1,60,9,28.0,27.3,96.0,101325,0,0,0,0,0,0,0,0,0,0,0,4.7,0,0,9999,77777,9,999999999,0,0,0,99,0.2,0,0
2023,5,12,2,60,9,28.1,27.6,97.0,101325,0,0,0,0,0,0,0,0,0,0,0,8.3,0,0,9999,77777,9,999999999,0,0,0,99,0.2,0,0
2023,5,12,3,60,9,29.1,27.2,90.0,101325,0,0,0,0,0,0,0,0,0,0,0,10.9,0,0,9999,77777,9,999999999,0,0,0,99,0.2,0,0
2023,5,12,4,60,9,30.3,26.5,80.0,101325,0,0,0,0,0,0,0,0,0,0,0,11.9,0,0,9999,77777,9,999999999,0,0,0,99,0.2,0,0
2023,5,12,5,60,9,31.7,25.8,71.0,101325,0,0,0,0,0,0,0,0,0,0,0,9.7,0,0,9999,77777,9,999999999,0,0,0,99,0.2,0,0
2023,5,12,6,60,9,32.8,25.4,65.0,101325,0,0,0,0,0,0,0,0,0,0,0,11.3,0,0,9999,77777,9,999999999,0,0,0,99,0.2,0,0
2023,5,12,7,60,9,33.3,25.0,62.0,101325,0,0,0,0,0,0,0,0,0,0,0,14.8,0,0,9999,77777,9,999999999,0,0,0,99,0.2,0,0
2023,5,12,8,60,9,34.0,24.6,58.0,101325,0,0,0,0,0,0,0,0,0,0,0,16.8,0,0,9999,77777,9,999999999,0,0,0,99,0.2,0,0
2023,5,12,9,60,9,33.9,25.1,60.0,101325,0,0,0,0,0,0,0,0,0,0,0,18.3,0,0,9999,77777,9,999999999,0,0,0,99,0.2,0,0
2023,5,12,10,60,9,33.6,24.9,61.0,101325,0,0,0,0,0,0,0,0,0,0,0,18.1,0,0,9999,77777,9,999999999,0,0,0,99,0.2,0,0
2023,5,12,11,60,9,33.3,24.6,60.0,101325,0,0,0,0,0,0,0,0,0,0,0,14.4,0,0,9999,77777,9,999999999,0,0,0,99,0.2,0,0
2023,5,12,12,60,9,32.9,25.7,66.0,101325,0,0,0,0,0,0,0,0,0,0,0,14.9,0,0,9999,77777,9,999999999,0,0,0,99,0.2,0,0
2023,5,12,13,60,9,31.4,25.6,71.0,101325,0,0,0,0,0,0,0,0,0,0,0,15.5,0,0,9999,77777,9,999999999,0,0,0,99,0.2,0,0
2023,5,12,14,60,9,30.5,25.9,77.0,101325,0,0,0,0,0,0,0,0,0,0,0,13.3,0,0,9999,77777,9,999999999,0,0,0,99,0.2,0,0
2023,5,12,15,60,9,29.5,26.4,83.0,101325,0,0,0,0,0,0,0,0,0,0,0,12.8,0,0,9999,77777,9,999999999,0,0,0,99,0.2,0,0
2023,5,12,16,60,9,29.1,26.9,88.0,101325,0,0,0,0,0,0,0,0,0,0,0,12.8,0,0,9999,77777,9,999999999,0,0,0,99,0.2,0,0
2023,5,12,17,60,9,28.8,27.3,92.0,101325,0,0,0,0,0,0,0,0,0,0,0,7.9,0,0,9999,77777,9,999999999,0,0,0,99,0.2,0,0
2023,5,12,18,60,9,29.1,27.0,89.0,101325,0,0,0,0,0,0,0,0,0,0,0,1.9,0,0,9999,77777,9,999999999,0,0,0,99,0.2,0,0
2023,5,12,19,60,9,27.5,26.5,95.0,101325,0,0,0,0,0,0,0,0,0,0,0,5.3,0,0,9999,77777,9,999999999,0,0,0,99,0.2,0,0
2023,5,12,20,60,9,27.7,26.7,94.0,101325,0,0,0,0,0,0,0,0,0,0,0,5.2,0,0,9999,77777,9,999999999,0,0,0,99,0.2,0,0
2023,5,12,21,60,9,27.8,26.8,95.0,101325,0,0,0,0,0,0,0,0,0,0,0,6.0,0,0,9999,77777,9,999999999,0,0,0,99,0.2,0,0
2023,5,12,22,60,9,27.9,27.0,95.0,101325,0,0,0,0,0,0,0,0,0,0,0,10.2,0,0,9999,77777,9,999999999,0,0,0,99,0.2,0,0
2023,5,12,23,60,9,27.8,26.8,95.0,101325,0,0,0,0,0,0,0,0,0,0,0,13.0,0,0,9999,77777,9,999999999,0,0,0,99,0.2,0,0
2023,5,12,24,60,9,27.9,26.7,93.0,101325,0,0,0,0,0,0,0,0,0,0,0,13.7,0,0,9999,77777,9,999999999,0,0,0,99,0.2,0,0
2023,5,13,1,60,9,28.5,27.1,92.0,101325,0,0,0,0,0,0,0,0,0,0,0,12.6,0,0,9999,77777,9,999999999,0,0,0,99,0.2,0,0
2023,5,13,2,60,9,28.8,26.9,90.0,101325,0,0,0,0,0,0,0,0,0,0,0,10.9,0,0,9999,77777,9,999999999,0,0,0,99,0.2,0,0
2023,5,13,3,60,9,30.1,26.2,80.0,101325,0,0,0,0,0,0,0,0,0,0,0,12.3,0,0,9999,77777,9,999999999,0,0,0,99,0.2,0,0
2023,5,13,4,60,9,31.1,25.6,73.0,101325,0,0,0,0,0,0,0,0,0,0,0,13.6,0,0,9999,77777,9,999999999,0,0,0,99,0.2,0,0
2023,5,13,5,60,9,32.0,25.2,67.0,101325,0,0,0,0,0,0,0,0,0,0,0,14.6,0,0,9999,77777,9,999999999,0,0,0,99,0.2,0,0
2023,5,13,6,60,9,32.5,25.1,65.0,101325,0,0,0,0,0,0,0,0,0,0,0,16.1,0,0,9999,77777,9,999999999,0,0,0,99,0.2,0,0
2023,5,13,7,60,9,32.9,25.1,63.0,101325,0,0,0,0,0,0,0,0,0,0,0,16.6,0,0,9999,77777,9,999999999,0,0,0,99,0.2,0,0
2023,5,13,8,60,9,33.2,25.1,63.0,101325,0,0,0,0,0,0,0,0,0,0,0,17.6,0,0,9999,77777,9,999999999,0,0,0,99,0.2,0,0
2023,5,13,9,60,9,33.3,25.0,62.0,101325,0,0,0,0,0,0,0,0,0,0,0,17.8,0,0,9999,77777,9,999999999,0,0,0,99,0.2,0,0
2023,5,13,10,60,9,33.3,24.4,60.0,101325,0,0,0,0,0,0,0,0,0,0,0,17.7,0,0,9999,77777,9,999999999,0,0,0,99,0.2,0,0
2023,5,13,11,60,9,32.9,24.2,60.0,101325,0,0,0,0,0,0,0,0,0,0,0,18.0,0,0,9999,77777,9,999999999,0,0,0,99,0.2,0,0
2023,5,13,12,60,9,32.3,24.0,62.0,101325,0,0,0,0,0,0,0,0,0,0,0,14.9,0,0,9999,77777,9,999999999,0,0,0,99,0.2,0,0
2023,5,13,13,60,9,31.3,24.0,65.0,101325,0,0,0,0,0,0,0,0,0,0,0,13.6,0,0,9999,77777,9,999999999,0,0,0,99,0.2,0,0
2023,5,13,14,60,9,30.3,24.3,70.0,101325,0,0,0,0,0,0,0,0,0,0,0,11.5,0,0,9999,77777,9,999999999,0,0,0,99,0.2,0,0
2023,5,13,15,60,9,29.6,24.9,76.0,101325,0,0,0,0,0,0,0,0,0,0,0,11.3,0,0,9999,77777,9,999999999,0,0,0,99,0.2,0,0
2023,5,13,16,60,9,29.3,25.2,79.0,101325,0,0,0,0,0,0,0,0,0,0,0,12.4,0,0,9999,77777,9,999999999,0,0,0,99,0.2,0,0
2023,5,13,17,60,9,29.1,25.2,80.0,101325,0,0,0,0,0,0,0,0,0,0,0,12.8,0,0,9999,77777,9,999999999,0,0,0,99,0.2,0,0
2023,5,13,18,60,9,28.9,25.1,80.0,101325,0,0,0,0,0,0,0,0,0,0,0,11.3,0,0,9999,77777,9,999999999,0,0,0,99,0.2,0,0
2023,5,13,19,60,9,28.1,25.4,85.0,101325,0,0,0,0,0,0,0,0,0,0,0,4.3,0,0,9999,77777,9,999999999,0,0,0,99,0.2,0,0
2023,5,13,20,60,9,27.4,25.4,89.0,101325,0,0,0,0,0,0,0,0,0,0,0,4.5,0,0,9999,77777,9,999999999,0,0,0,99,0.2,0,0
2023,5,13,21,60,9,27.5,25.7,90.0,101325,0,0,0,0,0,0,0,0,0,0,0,4.9,0,0,9999,77777,9,999999999,0,0,0,99,0.2,0,0
2023,5,13,22,60,9,27.5,25.5,89.0,101325,0,0,0,0,0,0,0,0,0,0,0,5.5,0,0,9999,77777,9,999999999,0,0,0,99,0.2,0,0
2023,5,13,23,60,9,27.3,25.3,89.0,101325,0,0,0,0,0,0,0,0,0,0,0,5.4,0,0,9999,77777,9,999999999,0,0,0,99,0.2,0,0
2023,5,13,24,60,9,27.3,25.2,89.0,101325,0,0,0,0,0,0,0,0,0,0,0,5.6,0,0,9999,77777,9,999999999,0,0,0,99,0.2,0,0
2023,5,14,1,60,9,28.0,25.9,88.0,101325,0,0,0,0,0,0,0,0,0,0,0,6.5,0,0,9999,77777,9,999999999,0,0,0,99,0.2,0,0
2023,5,14,2,60,9,28.3,25.8,86.0,101325,0,0,0,0,0,0,0,0,0,0,0,7.1,0,0,9999,77777,9,999999999,0,0,0,99,0.2,0,0
2023,5,14,3,60,9,29.7,25.2,77.0,101325,0,0,0,0,0,0,0,0,0,0,0,9.7,0,0,9999,77777,9,999999999,0,0,0,99,0.2,0,0
2023,5,14,4,60,9,30.7,24.6,70.0,101325,0,0,0,0,0,0,0,0,0,0,0,10.3,0,0,9999,77777,9,999999999,0,0,0,99,0.2,0,0
2023,5,14,5,60,9,31.6,24.4,66.0,101325,0,0,0,0,0,0,0,0,0,0,0,11.6,0,0,9999,77777,9,999999999,0,0,0,99,0.2,0,0
2023,5,14,6,60,9,32.3,24.3,63.0,101325,0,0,0,0,0,0,0,0,0,0,0,13.1,0,0,9999,77777,9,999999999,0,0,0,99,0.2,0,0
2023,5,14,7,60,9,32.9,24.0,60.0,101325,0,0,0,0,0,0,0,0,0,0,0,14.2,0,0,9999,77777,9,999999999,0,0,0,99,0.2,0,0
2023,5,14,8,60,9,33.2,24.0,58.0,101325,0,0,0,0,0,0,0,0,0,0,0,15.1,0,0,9999,77777,9,999999999,0,0,0,99,0.2,0,0
2023,5,14,9,60,9,33.2,24.0,59.0,101325,0,0,0,0,0,0,0,0,0,0,0,16.2,0,0,9999,77777,9,999999999,0,0,0,99,0.2,0,0
2023,5,14,10,60,9,33.1,24.1,59.0,101325,0,0,0,0,0,0,0,0,0,0,0,17.3,0,0,9999,77777,9,999999999,0,0,0,99,0.2,0,0
2023,5,14,11,60,9,32.5,24.6,63.0,101325,0,0,0,0,0,0,0,0,0,0,0,17.4,0,0,9999,77777,9,999999999,0,0,0,99,0.2,0,0
2023,5,14,12,60,9,32.0,24.7,65.0,101325,0,0,0,0,0,0,0,0,0,0,0,17.1,0,0,9999,77777,9,999999999,0,0,0,99,0.2,0,0
2023,5,14,13,60,9,30.8,24.7,70.0,101325,0,0,0,0,0,0,0,0,0,0,0,13.8,0,0,9999,77777,9,999999999,0,0,0,99,0.2,0,0
2023,5,14,14,60,9,29.9,24.9,75.0,101325,0,0,0,0,0,0,0,0,0,0,0,12.6,0,0,9999,77777,9,999999999,0,0,0,99,0.2,0,0
2023,5,14,15,60,9,29.2,25.3,80.0,101325,0,0,0,0,0,0,0,0,0,0,0,11.3,0,0,9999,77777,9,999999999,0,0,0,99,0.2,0,0
2023,5,14,16,60,9,29.1,25.2,80.0,101325,0,0,0,0,0,0,0,0,0,0,0,10.0,0,0,9999,77777,9,999999999,0,0,0,99,0.2,0,0
2023,5,14,17,60,9,28.9,25.5,82.0,101325,0,0,0,0,0,0,0,0,0,0,0,8.9,0,0,9999,77777,9,999999999,0,0,0,99,0.2,0,0
2023,5,14,18,60,9,28.7,25.8,84.0,101325,0,0,0,0,0,0,0,0,0,0,0,7.4,0,0,9999,77777,9,999999999,0,0,0,99,0.2,0,0
2023,5,14,19,60,9,28.5,26.0,86.0,101325,0,0,0,0,0,0,0,0,0,0,0,7.4,0,0,9999,77777,9,999999999,0,0,0,99,0.2,0,0
2023,5,14,20,60,9,28.3,25.9,87.0,101325,0,0,0,0,0,0,0,0,0,0,0,7.4,0,0,9999,77777,9,999999999,0,0,0,99,0.2,0,0
2023,5,14,21,60,9,28.3,25.7,86.0,101325,0,0,0,0,0,0,0,0,0,0,0,7.2,0,0,9999,77777,9,999999999,0,0,0,99,0.2,0,0
2023,5,14,22,60,9,28.3,25.6,85.0,101325,0,0,0,0,0,0,0,0,0,0,0,8.1,0,0,9999,77777,9,999999999,0,0,0,99,0.2,0,0
2023,5,14,23,60,9,28.3,25.6,86.0,101325,0,0,0,0,0,0,0,0,0,0,0,8.0,0,0,9999,77777,9,999999999,0,0,0,99,0.2,0,0
2023,5,14,24,60,9,28.2,25.7,86.0,101325,0,0,0,0,0,0,0,0,0,0,0,6.8,0,0,9999,77777,9,999999999,0,0,0,99,0.2,0,0
2023,5,15,1,60,9,28.3,25.7,86.0,101325,0,0,0,0,0,0,0,0,0,0,0,9.4,0,0,9999,77777,9,999999999,0,0,0,99,0.2,0,0
2023,5,15,2,60,9,28.8,25.6,83.0,101325,0,0,0,0,0,0,0,0,0,0,0,11.0,0,0,9999,77777,9,999999999,0,0,0,99,0.2,0,0
2023,5,15,3,60,9,29.8,25.3,77.0,101325,0,0,0,0,0,0,0,0,0,0,0,11.0,0,0,9999,77777,9,999999999,0,0,0,99,0.2,0,0
2023,5,15,4,60,9,30.7,25.0,72.0,101325,0,0,0,0,0,0,0,0,0,0,0,10.7,0,0,9999,77777,9,999999999,0,0,0,99,0.2,0,0
2023,5,15,5,60,9,31.7,24.7,67.0,101325,0,0,0,0,0,0,0,0,0,0,0,11.4,0,0,9999,77777,9,999999999,0,0,0,99,0.2,0,0
2023,5,15,6,60,9,32.5,24.6,63.0,101325,0,0,0,0,0,0,0,0,0,0,0,13.1,0,0,9999,77777,9,999999999,0,0,0,99,0.2,0,0
2023,5,15,7,60,9,33.0,24.7,62.0,101325,0,0,0,0,0,0,0,0,0,0,0,14.1,0,0,9999,77777,9,999999999,0,0,0,99,0.2,0,0
2023,5,15,8,60,9,33.1,24.6,61.0,101325,0,0,0,0,0,0,0,0,0,0,0,14.8,0,0,9999,77777,9,999999999,0,0,0,99,0.2,0,0
2023,5,15,9,60,9,33.2,24.4,60.0,101325,0,0,0,0,0,0,0,0,0,0,0,15.9,0,0,9999,77777,9,999999999,0,0,0,99,0.2,0,0
2023,5,15,10,60,9,32.9,24.4,61.0,101325,0,0,0,0,0,0,0,0,0,0,0,17.6,0,0,9999,77777,9,999999999,0,0,0,99,0.2,0,0
2023,5,15,11,60,9,32.5,24.5,63.0,101325,0,0,0,0,0,0,0,0,0,0,0,19.1,0,0,9999,77777,9,999999999,0,0,0,99,0.2,0,0
2023,5,15,12,60,9,31.8,24.5,65.0,101325,0,0,0,0,0,0,0,0,0,0,0,19.1,0,0,9999,77777,9,999999999,0,0,0,99,0.2,0,0
2023,5,15,13,60,9,31.0,24.2,67.0,101325,0,0,0,0,0,0,0,0,0,0,0,17.2,0,0,9999,77777,9,999999999,0,0,0,99,0.2,0,0
2023,5,15,14,60,9,30.5,24.0,69.0,101325,0,0,0,0,0,0,0,0,0,0,0,16.3,0,0,9999,77777,9,999999999,0,0,0,99,0.2,0,0
2023,5,15,15,60,9,29.9,24.3,72.0,101325,0,0,0,0,0,0,0,0,0,0,0,14.4,0,0,9999,77777,9,999999999,0,0,0,99,0.2,0,0
2023,5,15,16,60,9,29.6,24.5,74.0,101325,0,0,0,0,0,0,0,0,0,0,0,12.2,0,0,9999,77777,9,999999999,0,0,0,99,0.2,0,0
2023,5,15,17,60,9,29.3,24.7,76.0,101325,0,0,0,0,0,0,0,0,0,0,0,9.9,0,0,9999,77777,9,999999999,0,0,0,99,0.2,0,0
2023,5,15,18,60,9,29.0,25.0,79.0,101325,0,0,0,0,0,0,0,0,0,0,0,7.4,0,0,9999,77777,9,999999999,0,0,0,99,0.2,0,0
2023,5,15,19,60,9,28.7,25.1,81.0,101325,0,0,0,0,0,0,0,0,0,0,0,6.8,0,0,9999,77777,9,999999999,0,0,0,99,0.2,0,0
2023,5,15,20,60,9,28.4,25.3,84.0,101325,0,0,0,0,0,0,0,0,0,0,0,7.0,0,0,9999,77777,9,999999999,0,0,0,99,0.2,0,0
2023,5,15,21,60,9,28.1,25.4,85.0,101325,0,0,0,0,0,0,0,0,0,0,0,7.1,0,0,9999,77777,9,999999999,0,0,0,99,0.2,0,0
2023,5,15,22,60,9,27.9,25.4,86.0,101325,0,0,0,0,0,0,0,0,0,0,0,5.8,0,0,9999,77777,9,999999999,0,0,0,99,0.2,0,0
2023,5,15,23,60,9,27.7,25.2,86.0,101325,0,0,0,0,0,0,0,0,0,0,0,4.7,0,0,9999,77777,9,999999999,0,0,0,99,0.2,0,0
2023,5,15,24,60,9,27.7,25.2,86.0,101325,0,0,0,0,0,0,0,0,0,0,0,4.7,0,0,9999,77777,9,999999999,0,0,0,99,0.2,0,0
2023,5,16,1,60,9,28.6,25.4,83.0,101325,0,0,0,0,0,0,0,0,0,0,0,7.7,0,0,9999,77777,9,999999999,0,0,0,99,0.2,0,0
2023,5,16,2,60,9,28.8,25.3,81.0,101325,0,0,0,0,0,0,0,0,0,0,0,8.8,0,0,9999,77777,9,999999999,0,0,0,99,0.2,0,0
2023,5,16,3,60,9,29.9,24.9,74.0,101325,0,0,0,0,0,0,0,0,0,0,0,9.6,0,0,9999,77777,9,999999999,0,0,0,99,0.2,0,0
2023,5,16,4,60,9,30.9,24.6,69.0,101325,0,0,0,0,0,0,0,0,0,0,0,10.0,0,0,9999,77777,9,999999999,0,0,0,99,0.2,0,0
2023,5,16,5,60,9,32.1,24.2,63.0,101325,0,0,0,0,0,0,0,0,0,0,0,10.4,0,0,9999,77777,9,999999999,0,0,0,99,0.2,0,0
2023,5,16,6,60,9,33.0,23.7,58.0,101325,0,0,0,0,0,0,0,0,0,0,0,11.6,0,0,9999,77777,9,999999999,0,0,0,99,0.2,0,0
2023,5,16,7,60,9,33.6,23.5,55.0,101325,0,0,0,0,0,0,0,0,0,0,0,13.7,0,0,9999,77777,9,999999999,0,0,0,99,0.2,0,0
2023,5,16,8,60,9,33.5,23.6,56.0,101325,0,0,0,0,0,0,0,0,0,0,0,15.3,0,0,9999,77777,9,999999999,0,0,0,99,0.2,0,0
2023,5,16,9,60,9,33.4,23.8,57.0,101325,0,0,0,0,0,0,0,0,0,0,0,16.8,0,0,9999,77777,9,999999999,0,0,0,99,0.2,0,0
2023,5,16,10,60,9,33.2,23.7,58.0,101325,0,0,0,0,0,0,0,0,0,0,0,17.3,0,0,9999,77777,9,999999999,0,0,0,99,0.2,0,0
2023,5,16,11,60,9,32.8,23.9,60.0,101325,0,0,0,0,0,0,0,0,0,0,0,16.6,0,0,9999,77777,9,999999999,0,0,0,99,0.2,0,0
2023,5,16,12,60,9,32.3,24.1,62.0,101325,0,0,0,0,0,0,0,0,0,0,0,15.8,0,0,9999,77777,9,999999999,0,0,0,99,0.2,0,0
2023,5,16,13,60,9,31.2,23.5,64.0,101325,0,0,0,0,0,0,0,0,0,0,0,15.8,0,0,9999,77777,9,999999999,0,0,0,99,0.2,0,0
2023,5,16,14,60,9,30.5,23.7,67.0,101325,0,0,0,0,0,0,0,0,0,0,0,14.2,0,0,9999,77777,9,999999999,0,0,0,99,0.2,0,0
2023,5,16,15,60,9,30.1,23.7,68.0,101325,0,0,0,0,0,0,0,0,0,0,0,12.5,0,0,9999,77777,9,999999999,0,0,0,99,0.2,0,0
2023,5,16,16,60,9,30.0,23.7,69.0,101325,0,0,0,0,0,0,0,0,0,0,0,11.6,0,0,9999,77777,9,999999999,0,0,0,99,0.2,0,0
2023,5,16,17,60,9,29.6,24.1,72.0,101325,0,0,0,0,0,0,0,0,0,0,0,9.6,0,0,9999,77777,9,999999999,0,0,0,99,0.2,0,0
2023,5,16,18,60,9,29.3,24.3,74.0,101325,0,0,0,0,0,0,0,0,0,0,0,8.7,0,0,9999,77777,9,999999999,0,0,0,99,0.2,0,0
2023,5,16,19,60,9,28.8,24.6,78.0,101325,0,0,0,0,0,0,0,0,0,0,0,6.8,0,0,9999,77777,9,999999999,0,0,0,99,0.2,0,0
2023,5,16,20,60,9,28.2,25.0,83.0,101325,0,0,0,0,0,0,0,0,0,0,0,4.2,0,0,9999,77777,9,999999999,0,0,0,99,0.2,0,0
2023,5,16,21,60,9,27.9,24.8,83.0,101325,0,0,0,0,0,0,0,0,0,0,0,3.4,0,0,9999,77777,9,999999999,0,0,0,99,0.2,0,0
2023,5,16,22,60,9,27.8,24.6,83.0,101325,0,0,0,0,0,0,0,0,0,0,0,3.5,0,0,9999,77777,9,999999999,0,0,0,99,0.2,0,0
2023,5,16,23,60,9,27.7,24.9,85.0,101325,0,0,0,0,0,0,0,0,0,0,0,3.5,0,0,9999,77777,9,999999999,0,0,0,99,0.2,0,0
2023,5,16,24,60,9,27.4,25.2,88.0,101325,0,0,0,0,0,0,0,0,0,0,0,3.5,0,0,9999,77777,9,999999999,0,0,0,99,0.2,0,0
2023,5,17,1,60,9,28.5,25.0,81.0,101325,0,0,0,0,0,0,0,0,0,0,0,4.1,0,0,9999,77777,9,999999999,0,0,0,99,0.2,0,0
2023,5,17,2,60,9,28.8,24.8,79.0,101325,0,0,0,0,0,0,0,0,0,0,0,6.6,0,0,9999,77777,9,999999999,0,0,0,99,0.2,0,0
2023,5,17,3,60,9,29.6,24.6,75.0,101325,0,0,0,0,0,0,0,0,0,0,0,6.5,0,0,9999,77777,9,999999999,0,0,0,99,0.2,0,0
2023,5,17,4,60,9,30.8,24.2,68.0,101325,0,0,0,0,0,0,0,0,0,0,0,6.9,0,0,9999,77777,9,999999999,0,0,0,99,0.2,0,0
2023,5,17,5,60,9,31.9,23.9,63.0,101325,0,0,0,0,0,0,0,0,0,0,0,8.0,0,0,9999,77777,9,999999999,0,0,0,99,0.2,0,0
2023,5,17,6,60,9,32.7,23.4,58.0,101325,0,0,0,0,0,0,0,0,0,0,0,10.0,0,0,9999,77777,9,999999999,0,0,0,99,0.2,0,0
2023,5,17,7,60,9,33.4,23.2,55.0,101325,0,0,0,0,0,0,0,0,0,0,0,13.1,0,0,9999,77777,9,999999999,0,0,0,99,0.2,0,0
2023,5,17,8,60,9,33.4,23.4,56.0,101325,0,0,0,0,0,0,0,0,0,0,0,16.1,0,0,9999,77777,9,999999999,0,0,0,99,0.2,0,0
2023,5,17,9,60,9,33.1,23.5,57.0,101325,0,0,0,0,0,0,0,0,0,0,0,18.8,0,0,9999,77777,9,999999999,0,0,0,99,0.2,0,0
2023,5,17,10,60,9,32.9,23.7,59.0,101325,0,0,0,0,0,0,0,0,0,0,0,19.7,0,0,9999,77777,9,999999999,0,0,0,99,0.2,0,0
2023,5,17,11,60,9,32.4,23.6,60.0,101325,0,0,0,0,0,0,0,0,0,0,0,19.0,0,0,9999,77777,9,999999999,0,0,0,99,0.2,0,0
2023,5,17,12,60,9,31.7,24.3,65.0,101325,0,0,0,0,0,0,0,0,0,0,0,19.8,0,0,9999,77777,9,999999999,0,0,0,99,0.2,0,0
2023,5,17,13,60,9,30.9,24.5,69.0,101325,0,0,0,0,0,0,0,0,0,0,0,22.4,0,0,9999,77777,9,999999999,0,0,0,99,0.2,0,0
2023,5,17,14,60,9,29.9,24.4,72.0,101325,0,0,0,0,0,0,0,0,0,0,0,22.7,0,0,9999,77777,9,999999999,0,0,0,99,0.2,0,0
2023,5,17,15,60,9,29.4,24.1,73.0,101325,0,0,0,0,0,0,0,0,0,0,0,21.9,0,0,9999,77777,9,999999999,0,0,0,99,0.2,0,0
2023,5,17,16,60,9,29.1,24.5,76.0,101325,0,0,0,0,0,0,0,0,0,0,0,18.8,0,0,9999,77777,9,999999999,0,0,0,99,0.2,0,0
2023,5,17,17,60,9,28.8,24.9,79.0,101325,0,0,0,0,0,0,0,0,0,0,0,12.9,0,0,9999,77777,9,999999999,0,0,0,99,0.2,0,0
2023,5,17,18,60,9,28.5,25.3,83.0,101325,0,0,0,0,0,0,0,0,0,0,0,8.4,0,0,9999,77777,9,999999999,0,0,0,99,0.2,0,0
2023,5,17,19,60,9,28.3,25.6,85.0,101325,0,0,0,0,0,0,0,0,0,0,0,8.2,0,0,9999,77777,9,999999999,0,0,0,99,0.2,0,0
2023,5,17,20,60,9,28.3,25.7,86.0,101325,0,0,0,0,0,0,0,0,0,0,0,8.1,0,0,9999,77777,9,999999999,0,0,0,99,0.2,0,0
2023,5,17,21,60,9,28.0,25.7,87.0,101325,0,0,0,0,0,0,0,0,0,0,0,8.6,0,0,9999,77777,9,999999999,0,0,0,99,0.2,0,0
2023,5,17,22,60,9,27.8,25.6,88.0,101325,0,0,0,0,0,0,0,0,0,0,0,8.7,0,0,9999,77777,9,999999999,0,0,0,99,0.2,0,0
2023,5,17,23,60,9,27.6,25.3,87.0,101325,0,0,0,0,0,0,0,0,0,0,0,6.4,0,0,9999,77777,9,999999999,0,0,0,99,0.2,0,0
2023,5,17,24,60,9,27.1,25.5,91.0,101325,0,0,0,0,0,0,0,0,0,0,0,5.9,0,0,9999,77777,9,999999999,0,0,0,99,0.2,0,0
2023,5,18,1,60,9,27.5,25.5,89.0,101325,0,0,0,0,0,0,0,0,0,0,0,2.8,0,0,9999,77777,9,999999999,0,0,0,99,0.2,0,0
2023,5,18,2,60,9,27.7,25.6,89.0,101325,0,0,0,0,0,0,0,0,0,0,0,4.1,0,0,9999,77777,9,999999999,0,0,0,99,0.2,0,0
2023,5,18,3,60,9,28.7,25.5,83.0,101325,0,0,0,0,0,0,0,0,0,0,0,4.3,0,0,9999,77777,9,999999999,0,0,0,99,0.2,0,0
2023,5,18,4,60,9,30.1,25.1,74.0,101325,0,0,0,0,0,0,0,0,0,0,0,6.5,0,0,9999,77777,9,999999999,0,0,0,99,0.2,0,0
2023,5,18,5,60,9,31.7,24.3,65.0,101325,0,0,0,0,0,0,0,0,0,0,0,9.7,0,0,9999,77777,9,999999999,0,0,0,99,0.2,0,0
2023,5,18,6,60,9,32.7,24.0,60.0,101325,0,0,0,0,0,0,0,0,0,0,0,12.7,0,0,9999,77777,9,999999999,0,0,0,99,0.2,0,0
2023,5,18,7,60,9,33.1,24.1,59.0,101325,0,0,0,0,0,0,0,0,0,0,0,17.5,0,0,9999,77777,9,999999999,0,0,0,99,0.2,0,0
2023,5,18,8,60,9,33.2,23.6,57.0,101325,0,0,0,0,0,0,0,0,0,0,0,19.5,0,0,9999,77777,9,999999999,0,0,0,99,0.2,0,0
2023,5,18,9,60,9,33.2,23.4,57.0,101325,0,0,0,0,0,0,0,0,0,0,0,20.5,0,0,9999,77777,9,999999999,0,0,0,99,0.2,0,0
2023,5,18,10,60,9,32.8,23.9,59.0,101325,0,0,0,0,0,0,0,0,0,0,0,20.9,0,0,9999,77777,9,999999999,0,0,0,99,0.2,0,0
2023,5,18,11,60,9,32.2,24.1,62.0,101325,0,0,0,0,0,0,0,0,0,0,0,19.6,0,0,9999,77777,9,999999999,0,0,0,99,0.2,0,0
2023,5,18,12,60,9,31.4,24.7,68.0,101325,0,0,0,0,0,0,0,0,0,0,0,20.8,0,0,9999,77777,9,999999999,0,0,0,99,0.2,0,0
2023,5,18,13,60,9,30.8,24.9,71.0,101325,0,0,0,0,0,0,0,0,0,0,0,24.4,0,0,9999,77777,9,999999999,0,0,0,99,0.2,0,0
2023,5,18,14,60,9,29.8,24.8,75.0,101325,0,0,0,0,0,0,0,0,0,0,0,23.5,0,0,9999,77777,9,999999999,0,0,0,99,0.2,0,0
2023,5,18,15,60,9,29.1,25.2,80.0,101325,0,0,0,0,0,0,0,0,0,0,0,21.9,0,0,9999,77777,9,999999999,0,0,0,99,0.2,0,0
2023,5,18,16,60,9,28.8,25.4,82.0,101325,0,0,0,0,0,0,0,0,0,0,0,20.4,0,0,9999,77777,9,999999999,0,0,0,99,0.2,0,0
2023,5,18,17,60,9,28.6,25.6,84.0,101325,0,0,0,0,0,0,0,0,0,0,0,14.0,0,0,9999,77777,9,999999999,0,0,0,99,0.2,0,0
2023,5,18,18,60,9,28.2,25.8,87.0,101325,0,0,0,0,0,0,0,0,0,0,0,9.0,0,0,9999,77777,9,999999999,0,0,0,99,0.2,0,0
2023,5,18,19,60,9,27.9,26.1,90.0,101325,0,0,0,0,0,0,0,0,0,0,0,6.8,0,0,9999,77777,9,999999999,0,0,0,99,0.2,0,0
2023,5,18,20,60,9,27.9,26.2,90.0,101325,0,0,0,0,0,0,0,0,0,0,0,8.7,0,0,9999,77777,9,999999999,0,0,0,99,0.2,0,0
2023,5,18,21,60,9,27.8,26.0,90.0,101325,0,0,0,0,0,0,0,0,0,0,0,9.8,0,0,9999,77777,9,999999999,0,0,0,99,0.2,0,0
2023,5,18,22,60,9,27.7,25.8,89.0,101325,0,0,0,0,0,0,0,0,0,0,0,8.4,0,0,9999,77777,9,999999999,0,0,0,99,0.2,0,0
2023,5,18,23,60,9,27.3,25.9,92.0,101325,0,0,0,0,0,0,0,0,0,0,0,6.0,0,0,9999,77777,9,999999999,0,0,0,99,0.2,0,0
2023,5,18,24,60,9,26.8,26.0,95.0,101325,0,0,0,0,0,0,0,0,0,0,0,7.0,0,0,9999,77777,9,999999999,0,0,0,99,0.2,0,0
2023,5,19,1,60,9,27.3,26.3,94.0,101325,0,0,0,0,0,0,0,0,0,0,0,6.4,0,0,9999,77777,9,999999999,0,0,0,99,0.2,0,0
2023,5,19,2,60,9,27.8,26.1,90.0,101325,0,0,0,0,0,0,0,0,0,0,0,7.4,0,0,9999,77777,9,999999999,0,0,0,99,0.2,0,0
2023,5,19,3,60,9,28.8,26.1,85.0,101325,0,0,0,0,0,0,0,0,0,0,0,8.6,0,0,9999,77777,9,999999999,0,0,0,99,0.2,0,0
2023,5,19,4,60,9,30.6,25.1,73.0,101325,0,0,0,0,0,0,0,0,0,0,0,10.5,0,0,9999,77777,9,999999999,0,0,0,99,0.2,0,0
2023,5,19,5,60,9,32.0,24.1,63.0,101325,0,0,0,0,0,0,0,0,0,0,0,11.4,0,0,9999,77777,9,999999999,0,0,0,99,0.2,0,0
2023,5,19,6,60,9,33.0,24.1,60.0,101325,0,0,0,0,0,0,0,0,0,0,0,12.7,0,0,9999,77777,9,999999999,0,0,0,99,0.2,0,0
2023,5,19,7,60,9,33.5,24.0,58.0,101325,0,0,0,0,0,0,0,0,0,0,0,15.9,0,0,9999,77777,9,999999999,0,0,0,99,0.2,0,0
2023,5,19,8,60,9,33.5,23.7,57.0,101325,0,0,0,0,0,0,0,0,0,0,0,19.3,0,0,9999,77777,9,999999999,0,0,0,99,0.2,0,0
2023,5,19,9,60,9,33.2,23.8,58.0,101325,0,0,0,0,0,0,0,0,0,0,0,20.9,0,0,9999,77777,9,999999999,0,0,0,99,0.2,0,0
2023,5,19,10,60,9,32.7,24.1,60.0,101325,0,0,0,0,0,0,0,0,0,0,0,21.6,0,0,9999,77777,9,999999999,0,0,0,99,0.2,0,0
2023,5,19,11,60,9,32.1,24.7,65.0,101325,0,0,0,0,0,0,0,0,0,0,0,23.2,0,0,9999,77777,9,999999999,0,0,0,99,0.2,0,0
2023,5,19,12,60,9,31.4,24.8,68.0,101325,0,0,0,0,0,0,0,0,0,0,0,23.0,0,0,9999,77777,9,999999999,0,0,0,99,0.2,0,0
2023,5,19,13,60,9,30.3,25.7,76.0,101325,0,0,0,0,0,0,0,0,0,0,0,22.8,0,0,9999,77777,9,999999999,0,0,0,99,0.2,0,0
2023,5,19,14,60,9,29.4,25.6,80.0,101325,0,0,0,0,0,0,0,0,0,0,0,23.2,0,0,9999,77777,9,999999999,0,0,0,99,0.2,0,0
2023,5,19,15,60,9,28.9,25.8,83.0,101325,0,0,0,0,0,0,0,0,0,0,0,20.7,0,0,9999,77777,9,999999999,0,0,0,99,0.2,0,0
2023,5,19,16,60,9,28.8,25.7,83.0,101325,0,0,0,0,0,0,0,0,0,0,0,18.0,0,0,9999,77777,9,999999999,0,0,0,99,0.2,0,0
2023,5,19,17,60,9,28.7,25.7,84.0,101325,0,0,0,0,0,0,0,0,0,0,0,13.5,0,0,9999,77777,9,999999999,0,0,0,99,0.2,0,0
2023,5,19,18,60,9,28.4,25.8,86.0,101325,0,0,0,0,0,0,0,0,0,0,0,9.9,0,0,9999,77777,9,999999999,0,0,0,99,0.2,0,0
2023,5,19,19,60,9,28.2,25.9,88.0,101325,0,0,0,0,0,0,0,0,0,0,0,8.7,0,0,9999,77777,9,999999999,0,0,0,99,0.2,0,0
2023,5,19,20,60,9,28.0,25.9,89.0,101325,0,0,0,0,0,0,0,0,0,0,0,8.9,0,0,9999,77777,9,999999999,0,0,0,99,0.2,0,0
2023,5,19,21,60,9,28.0,25.8,88.0,101325,0,0,0,0,0,0,0,0,0,0,0,9.7,0,0,9999,77777,9,999999999,0,0,0,99,0.2,0,0
2023,5,19,22,60,9,28.0,25.5,86.0,101325,0,0,0,0,0,0,0,0,0,0,0,9.0,0,0,9999,77777,9,999999999,0,0,0,99,0.2,0,0
2023,5,19,23,60,9,27.8,25.5,87.0,101325,0,0,0,0,0,0,0,0,0,0,0,6.4,0,0,9999,77777,9,999999999,0,0,0,99,0.2,0,0
2023,5,19,24,60,9,27.8,25.1,86.0,101325,0,0,0,0,0,0,0,0,0,0,0,5.2,0,0,9999,77777,9,999999999,0,0,0,99,0.2,0,0
2023,5,20,1,60,9,27.6,26.3,92.0,101325,0,0,0,0,0,0,0,0,0,0,0,4.9,0,0,9999,77777,9,999999999,0,0,0,99,0.2,0,0
2023,5,20,2,60,9,28.1,25.9,88.0,101325,0,0,0,0,0,0,0,0,0,0,0,6.0,0,0,9999,77777,9,999999999,0,0,0,99,0.2,0,0
2023,5,20,3,60,9,29.3,24.9,77.0,101325,0,0,0,0,0,0,0,0,0,0,0,8.0,0,0,9999,77777,9,999999999,0,0,0,99,0.2,0,0
2023,5,20,4,60,9,30.7,24.2,68.0,101325,0,0,0,0,0,0,0,0,0,0,0,8.9,0,0,9999,77777,9,999999999,0,0,0,99,0.2,0,0
2023,5,20,5,60,9,31.8,23.8,62.0,101325,0,0,0,0,0,0,0,0,0,0,0,10.7,0,0,9999,77777,9,999999999,0,0,0,99,0.2,0,0
2023,5,20,6,60,9,32.5,23.6,60.0,101325,0,0,0,0,0,0,0,0,0,0,0,12.9,0,0,9999,77777,9,999999999,0,0,0,99,0.2,0,0
2023,5,20,7,60,9,32.6,24.0,60.0,101325,0,0,0,0,0,0,0,0,0,0,0,15.5,0,0,9999,77777,9,999999999,0,0,0,99,0.2,0,0
2023,5,20,8,60,9,32.6,23.9,60.0,101325,0,0,0,0,0,0,0,0,0,0,0,17.3,0,0,9999,77777,9,999999999,0,0,0,99,0.2,0,0
2023,5,20,9,60,9,32.6,23.6,59.0,101325,0,0,0,0,0,0,0,0,0,0,0,18.2,0,0,9999,77777,9,999999999,0,0,0,99,0.2,0,0
2023,5,20,10,60,9,32.4,23.5,59.0,101325,0,0,0,0,0,0,0,0,0,0,0,18.1,0,0,9999,77777,9,999999999,0,0,0,99,0.2,0,0
2023,5,20,11,60,9,32.0,23.9,62.0,101325,0,0,0,0,0,0,0,0,0,0,0,17.7,0,0,9999,77777,9,999999999,0,0,0,99,0.2,0,0
2023,5,20,12,60,9,31.3,24.4,67.0,101325,0,0,0,0,0,0,0,0,0,0,0,17.7,0,0,9999,77777,9,999999999,0,0,0,99,0.2,0,0
2023,5,20,13,60,9,30.4,24.8,72.0,101325,0,0,0,0,0,0,0,0,0,0,0,18.7,0,0,9999,77777,9,999999999,0,0,0,99,0.2,0,0
2023,5,20,14,60,9,29.6,24.9,76.0,101325,0,0,0,0,0,0,0,0,0,0,0,17.4,0,0,9999,77777,9,999999999,0,0,0,99,0.2,0,0
2023,5,20,15,60,9,29.0,24.9,79.0,101325,0,0,0,0,0,0,0,0,0,0,0,14.7,0,0,9999,77777,9,999999999,0,0,0,99,0.2,0,0
2023,5,20,16,60,9,28.8,25.1,80.0,101325,0,0,0,0,0,0,0,0,0,0,0,12.6,0,0,9999,77777,9,999999999,0,0,0,99,0.2,0,0
2023,5,20,17,60,9,28.6,25.3,82.0,101325,0,0,0,0,0,0,0,0,0,0,0,9.4,0,0,9999,77777,9,999999999,0,0,0,99,0.2,0,0
2023,5,20,18,60,9,28.3,25.5,85.0,101325,0,0,0,0,0,0,0,0,0,0,0,6.9,0,0,9999,77777,9,999999999,0,0,0,99,0.2,0,0
2023,5,20,19,60,9,28.2,25.5,85.0,101325,0,0,0,0,0,0,0,0,0,0,0,7.3,0,0,9999,77777,9,999999999,0,0,0,99,0.2,0,0
2023,5,20,20,60,9,28.1,25.4,86.0,101325,0,0,0,0,0,0,0,0,0,0,0,6.7,0,0,9999,77777,9,999999999,0,0,0,99,0.2,0,0
2023,5,20,21,60,9,28.1,25.3,85.0,101325,0,0,0,0,0,0,0,0,0,0,0,8.8,0,0,9999,77777,9,999999999,0,0,0,99,0.2,0,0
2023,5,20,22,60,9,27.9,25.1,85.0,101325,0,0,0,0,0,0,0,0,0,0,0,9.7,0,0,9999,77777,9,999999999,0,0,0,99,0.2,0,0
2023,5,20,23,60,9,27.8,25.1,86.0,101325,0,0,0,0,0,0,0,0,0,0,0,9.7,0,0,9999,77777,9,999999999,0,0,0,99,0.2,0,0
2023,5,20,24,60,9,27.9,24.9,84.0,101325,0,0,0,0,0,0,0,0,0,0,0,8.8,0,0,9999,77777,9,999999999,0,0,0,99,0.2,0,0
2023,5,21,1,60,9,27.7,24.6,83.0,101325,0,0,0,0,0,0,0,0,0,0,0,3.1,0,0,9999,77777,9,999999999,0,0,0,99,0.2,0,0
2023,5,21,2,60,9,28.3,24.4,80.0,101325,0,0,0,0,0,0,0,0,0,0,0,5.0,0,0,9999,77777,9,999999999,0,0,0,99,0.2,0,0
2023,5,21,3,60,9,29.4,24.1,73.0,101325,0,0,0,0,0,0,0,0,0,0,0,8.7,0,0,9999,77777,9,999999999,0,0,0,99,0.2,0,0
2023,5,21,4,60,9,30.3,23.9,68.0,101325,0,0,0,0,0,0,0,0,0,0,0,9.7,0,0,9999,77777,9,999999999,0,0,0,99,0.2,0,0
2023,5,21,5,60,9,31.4,23.3,62.0,101325,0,0,0,0,0,0,0,0,0,0,0,10.3,0,0,9999,77777,9,999999999,0,0,0,99,0.2,0,0
2023,5,21,6,60,9,32.2,22.8,58.0,101325,0,0,0,0,0,0,0,0,0,0,0,10.8,0,0,9999,77777,9,999999999,0,0,0,99,0.2,0,0
2023,5,21,7,60,9,32.8,22.6,55.0,101325,0,0,0,0,0,0,0,0,0,0,0,12.7,0,0,9999,77777,9,999999999,0,0,0,99,0.2,0,0
2023,5,21,8,60,9,32.9,22.8,55.0,101325,0,0,0,0,0,0,0,0,0,0,0,15.6,0,0,9999,77777,9,999999999,0,0,0,99,0.2,0,0
2023,5,21,9,60,9,32.9,22.3,54.0,101325,0,0,0,0,0,0,0,0,0,0,0,17.7,0,0,9999,77777,9,999999999,0,0,0,99,0.2,0,0
2023,5,21,10,60,9,32.6,23.0,57.0,101325,0,0,0,0,0,0,0,0,0,0,0,19.0,0,0,9999,77777,9,999999999,0,0,0,99,0.2,0,0
2023,5,21,11,60,9,32.2,23.3,60.0,101325,0,0,0,0,0,0,0,0,0,0,0,19.9,0,0,9999,77777,9,999999999,0,0,0,99,0.2,0,0
2023,5,21,12,60,9,31.5,23.7,63.0,101325,0,0,0,0,0,0,0,0,0,0,0,18.9,0,0,9999,77777,9,999999999,0,0,0,99,0.2,0,0
2023,5,21,13,60,9,30.7,23.8,67.0,101325,0,0,0,0,0,0,0,0,0,0,0,17.6,0,0,9999,77777,9,999999999,0,0,0,99,0.2,0,0
2023,5,21,14,60,9,29.8,24.1,71.0,101325,0,0,0,0,0,0,0,0,0,0,0,16.9,0,0,9999,77777,9,999999999,0,0,0,99,0.2,0,0
2023,5,21,15,60,9,29.2,24.3,75.0,101325,0,0,0,0,0,0,0,0,0,0,0,14.8,0,0,9999,77777,9,999999999,0,0,0,99,0.2,0,0
2023,5,21,16,60,9,29.1,24.3,76.0,101325,0,0,0,0,0,0,0,0,0,0,0,12.4,0,0,9999,77777,9,999999999,0,0,0,99,0.2,0,0
2023,5,21,17,60,9,28.8,24.6,78.0,101325,0,0,0,0,0,0,0,0,0,0,0,8.5,0,0,9999,77777,9,999999999,0,0,0,99,0.2,0,0
2023,5,21,18,60,9,28.3,24.9,82.0,101325,0,0,0,0,0,0,0,0,0,0,0,4.4,0,0,9999,77777,9,999999999,0,0,0,99,0.2,0,0
2023,5,21,19,60,9,27.9,25.4,86.0,101325,0,0,0,0,0,0,0,0,0,0,0,4.3,0,0,9999,77777,9,999999999,0,0,0,99,0.2,0,0
2023,5,21,20,60,9,27.7,25.5,88.0,101325,0,0,0,0,0,0,0,0,0,0,0,5.6,0,0,9999,77777,9,999999999,0,0,0,99,0.2,0,0
2023,5,21,21,60,9,27.6,25.5,88.0,101325,0,0,0,0,0,0,0,0,0,0,0,6.6,0,0,9999,77777,9,999999999,0,0,0,99,0.2,0,0
2023,5,21,22,60,9,27.2,25.4,90.0,101325,0,0,0,0,0,0,0,0,0,0,0,5.0,0,0,9999,77777,9,999999999,0,0,0,99,0.2,0,0
2023,5,21,23,60,9,27.2,25.4,90.0,101325,0,0,0,0,0,0,0,0,0,0,0,5.7,0,0,9999,77777,9,999999999,0,0,0,99,0.2,0,0
2023,5,21,24,60,9,27.1,25.5,91.0,101325,0,0,0,0,0,0,0,0,0,0,0,4.9,0,0,9999,77777,9,999999999,0,0,0,99,0.2,0,0
2023,5,22,1,60,9,27.5,25.6,90.0,101325,0,0,0,0,0,0,0,0,0,0,0,6.0,0,0,9999,77777,9,999999999,0,0,0,99,0.2,0,0
2023,5,22,2,60,9,27.8,25.5,87.0,101325,0,0,0,0,0,0,0,0,0,0,0,6.2,0,0,9999,77777,9,999999999,0,0,0,99,0.2,0,0
2023,5,22,3,60,9,28.8,25.3,82.0,101325,0,0,0,0,0,0,0,0,0,0,0,5.5,0,0,9999,77777,9,999999999,0,0,0,99,0.2,0,0
2023,5,22,4,60,9,30.1,24.9,74.0,101325,0,0,0,0,0,0,0,0,0,0,0,4.7,0,0,9999,77777,9,999999999,0,0,0,99,0.2,0,0
2023,5,22,5,60,9,31.5,24.2,65.0,101325,0,0,0,0,0,0,0,0,0,0,0,6.5,0,0,9999,77777,9,999999999,0,0,0,99,0.2,0,0
2023,5,22,6,60,9,32.2,23.9,62.0,101325,0,0,0,0,0,0,0,0,0,0,0,11.2,0,0,9999,77777,9,999999999,0,0,0,99,0.2,0,0
2023,5,22,7,60,9,32.7,23.7,59.0,101325,0,0,0,0,0,0,0,0,0,0,0,13.0,0,0,9999,77777,9,999999999,0,0,0,99,0.2,0,0
2023,5,22,8,60,9,32.7,23.4,58.0,101325,0,0,0,0,0,0,0,0,0,0,0,15.4,0,0,9999,77777,9,999999999,0,0,0,99,0.2,0,0
2023,5,22,9,60,9,33.0,22.5,54.0,101325,0,0,0,0,0,0,0,0,0,0,0,16.1,0,0,9999,77777,9,999999999,0,0,0,99,0.2,0,0
2023,5,22,10,60,9,32.8,22.8,56.0,101325,0,0,0,0,0,0,0,0,0,0,0,17.3,0,0,9999,77777,9,999999999,0,0,0,99,0.2,0,0
2023,5,22,11,60,9,32.4,23.3,59.0,101325,0,0,0,0,0,0,0,0,0,0,0,17.0,0,0,9999,77777,9,999999999,0,0,0,99,0.2,0,0
2023,5,22,12,60,9,31.5,23.8,64.0,101325,0,0,0,0,0,0,0,0,0,0,0,17.0,0,0,9999,77777,9,999999999,0,0,0,99,0.2,0,0
2023,5,22,13,60,9,30.5,23.8,68.0,101325,0,0,0,0,0,0,0,0,0,0,0,18.5,0,0,9999,77777,9,999999999,0,0,0,99,0.2,0,0
2023,5,22,14,60,9,29.7,23.8,71.0,101325,0,0,0,0,0,0,0,0,0,0,0,17.8,0,0,9999,77777,9,999999999,0,0,0,99,0.2,0,0
2023,5,22,15,60,9,29.2,24.2,74.0,101325,0,0,0,0,0,0,0,0,0,0,0,15.6,0,0,9999,77777,9,999999999,0,0,0,99,0.2,0,0
2023,5,22,16,60,9,28.8,24.5,77.0,101325,0,0,0,0,0,0,0,0,0,0,0,13.8,0,0,9999,77777,9,999999999,0,0,0,99,0.2,0,0
2023,5,22,17,60,9,28.7,24.7,79.0,101325,0,0,0,0,0,0,0,0,0,0,0,12.2,0,0,9999,77777,9,999999999,0,0,0,99,0.2,0,0
2023,5,22,18,60,9,28.3,24.8,81.0,101325,0,0,0,0,0,0,0,0,0,0,0,9.7,0,0,9999,77777,9,999999999,0,0,0,99,0.2,0,0
2023,5,22,19,60,9,27.8,25.2,86.0,101325,0,0,0,0,0,0,0,0,0,0,0,7.9,0,0,9999,77777,9,999999999,0,0,0,99,0.2,0,0
2023,5,22,20,60,9,27.3,25.5,90.0,101325,0,0,0,0,0,0,0,0,0,0,0,5.4,0,0,9999,77777,9,999999999,0,0,0,99,0.2,0,0
2023,5,22,21,60,9,27.1,25.8,93.0,101325,0,0,0,0,0,0,0,0,0,0,0,6.5,0,0,9999,77777,9,999999999,0,0,0,99,0.2,0,0
2023,5,22,22,60,9,27.0,25.7,93.0,101325,0,0,0,0,0,0,0,0,0,0,0,5.6,0,0,9999,77777,9,999999999,0,0,0,99,0.2,0,0
2023,5,22,23,60,9,26.7,25.7,94.0,101325,0,0,0,0,0,0,0,0,0,0,0,4.8,0,0,9999,77777,9,999999999,0,0,0,99,0.2,0,0
2023,5,22,24,60,9,26.4,25.6,95.0,101325,0,0,0,0,0,0,0,0,0,0,0,6.4,0,0,9999,77777,9,999999999,0,0,0,99,0.2,0,0
2023,5,23,1,60,9,26.8,25.4,92.0,101325,0,0,0,0,0,0,0,0,0,0,0,4.7,0,0,9999,77777,9,999999999,0,0,0,99,0.2,0,0
2023,5,23,2,60,9,27.2,25.2,89.0,101325,0,0,0,0,0,0,0,0,0,0,0,5.2,0,0,9999,77777,9,999999999,0,0,0,99,0.2,0,0
2023,5,23,3,60,9,28.2,24.9,83.0,101325,0,0,0,0,0,0,0,0,0,0,0,6.2,0,0,9999,77777,9,999999999,0,0,0,99,0.2,0,0
2023,5,23,4,60,9,29.7,24.9,75.0,101325,0,0,0,0,0,0,0,0,0,0,0,5.9,0,0,9999,77777,9,999999999,0,0,0,99,0.2,0,0
2023,5,23,5,60,9,31.3,24.3,67.0,101325,0,0,0,0,0,0,0,0,0,0,0,7.2,0,0,9999,77777,9,999999999,0,0,0,99,0.2,0,0
2023,5,23,6,60,9,32.7,24.0,60.0,101325,0,0,0,0,0,0,0,0,0,0,0,9.2,0,0,9999,77777,9,999999999,0,0,0,99,0.2,0,0
2023,5,23,7,60,9,33.5,24.4,59.0,101325,0,0,0,0,0,0,0,0,0,0,0,14.4,0,0,9999,77777,9,999999999,0,0,0,99,0.2,0,0
2023,5,23,8,60,9,33.3,24.3,59.0,101325,0,0,0,0,0,0,0,0,0,0,0,20.2,0,0,9999,77777,9,999999999,0,0,0,99,0.2,0,0
2023,5,23,9,60,9,33.3,23.0,55.0,101325,0,0,0,0,0,0,0,0,0,0,0,21.9,0,0,9999,77777,9,999999999,0,0,0,99,0.2,0,0
2023,5,23,10,60,9,32.6,23.8,60.0,101325,0,0,0,0,0,0,0,0,0,0,0,22.9,0,0,9999,77777,9,999999999,0,0,0,99,0.2,0,0
2023,5,23,11,60,9,32.1,24.5,64.0,101325,0,0,0,0,0,0,0,0,0,0,0,21.3,0,0,9999,77777,9,999999999,0,0,0,99,0.2,0,0
2023,5,23,12,60,9,31.4,24.7,68.0,101325,0,0,0,0,0,0,0,0,0,0,0,21.8,0,0,9999,77777,9,999999999,0,0,0,99,0.2,0,0
2023,5,23,13,60,9,30.6,24.7,71.0,101325,0,0,0,0,0,0,0,0,0,0,0,22.0,0,0,9999,77777,9,999999999,0,0,0,99,0.2,0,0
2023,5,23,14,60,9,29.7,25.2,77.0,101325,0,0,0,0,0,0,0,0,0,0,0,19.9,0,0,9999,77777,9,999999999,0,0,0,99,0.2,0,0
2023,5,23,15,60,9,29.0,25.5,81.0,101325,0,0,0,0,0,0,0,0,0,0,0,20.4,0,0,9999,77777,9,999999999,0,0,0,99,0.2,0,0
2023,5,23,16,60,9,28.9,25.6,82.0,101325,0,0,0,0,0,0,0,0,0,0,0,19.5,0,0,9999,77777,9,999999999,0,0,0,99,0.2,0,0
2023,5,23,17,60,9,28.8,25.6,83.0,101325,0,0,0,0,0,0,0,0,0,0,0,15.1,0,0,9999,77777,9,999999999,0,0,0,99,0.2,0,0
2023,5,23,18,60,9,28.6,25.8,85.0,101325,0,0,0,0,0,0,0,0,0,0,0,13.1,0,0,9999,77777,9,999999999,0,0,0,99,0.2,0,0
2023,5,23,19,60,9,28.5,25.7,85.0,101325,0,0,0,0,0,0,0,0,0,0,0,12.2,0,0,9999,77777,9,999999999,0,0,0,99,0.2,0,0
2023,5,23,20,60,9,28.4,25.6,85.0,101325,0,0,0,0,0,0,0,0,0,0,0,9.4,0,0,9999,77777,9,999999999,0,0,0,99,0.2,0,0
2023,5,23,21,60,9,28.1,25.6,86.0,101325,0,0,0,0,0,0,0,0,0,0,0,8.0,0,0,9999,77777,9,999999999,0,0,0,99,0.2,0,0
2023,5,23,22,60,9,28.0,25.6,87.0,101325,0,0,0,0,0,0,0,0,0,0,0,5.8,0,0,9999,77777,9,999999999,0,0,0,99,0.2,0,0
2023,5,23,23,60,9,27.5,25.8,90.0,101325,0,0,0,0,0,0,0,0,0,0,0,4.0,0,0,9999,77777,9,999999999,0,0,0,99,0.2,0,0
2023,5,23,24,60,9,27.3,26.0,93.0,101325,0,0,0,0,0,0,0,0,0,0,0,3.7,0,0,9999,77777,9,999999999,0,0,0,99,0.2,0,0
2023,5,24,1,60,9,27.9,25.7,88.0,101325,0,0,0,0,0,0,0,0,0,0,0,5.1,0,0,9999,77777,9,999999999,0,0,0,99,0.2,0,0
2023,5,24,2,60,9,28.4,25.4,84.0,101325,0,0,0,0,0,0,0,0,0,0,0,5.7,0,0,9999,77777,9,999999999,0,0,0,99,0.2,0,0
2023,5,24,3,60,9,29.4,25.0,77.0,101325,0,0,0,0,0,0,0,0,0,0,0,6.2,0,0,9999,77777,9,999999999,0,0,0,99,0.2,0,0
2023,5,24,4,60,9,30.6,24.6,71.0,101325,0,0,0,0,0,0,0,0,0,0,0,6.4,0,0,9999,77777,9,999999999,0,0,0,99,0.2,0,0
2023,5,24,5,60,9,31.7,24.2,65.0,101325,0,0,0,0,0,0,0,0,0,0,0,7.8,0,0,9999,77777,9,999999999,0,0,0,99,0.2,0,0
2023,5,24,6,60,9,32.7,24.0,60.0,101325,0,0,0,0,0,0,0,0,0,0,0,10.6,0,0,9999,77777,9,999999999,0,0,0,99,0.2,0,0
2023,5,24,7,60,9,33.1,24.1,59.0,101325,0,0,0,0,0,0,0,0,0,0,0,13.3,0,0,9999,77777,9,999999999,0,0,0,99,0.2,0,0
2023,5,24,8,60,9,33.3,24.0,58.0,101325,0,0,0,0,0,0,0,0,0,0,0,16.4,0,0,9999,77777,9,999999999,0,0,0,99,0.2,0,0
2023,5,24,9,60,9,33.1,23.9,58.0,101325,0,0,0,0,0,0,0,0,0,0,0,18.2,0,0,9999,77777,9,999999999,0,0,0,99,0.2,0,0
2023,5,24,10,60,9,32.9,24.4,61.0,101325,0,0,0,0,0,0,0,0,0,0,0,19.9,0,0,9999,77777,9,999999999,0,0,0,99,0.2,0,0
2023,5,24,11,60,9,32.5,24.6,63.0,101325,0,0,0,0,0,0,0,0,0,0,0,19.1,0,0,9999,77777,9,999999999,0,0,0,99,0.2,0,0
2023,5,24,12,60,9,32.0,24.7,66.0,101325,0,0,0,0,0,0,0,0,0,0,0,18.4,0,0,9999,77777,9,999999999,0,0,0,99,0.2,0,0
2023,5,24,13,60,9,30.7,24.2,68.0,101325,0,0,0,0,0,0,0,0,0,0,0,17.9,0,0,9999,77777,9,999999999,0,0,0,99,0.2,0,0
2023,5,24,14,60,9,29.8,24.5,73.0,101325,0,0,0,0,0,0,0,0,0,0,0,18.8,0,0,9999,77777,9,999999999,0,0,0,99,0.2,0,0
2023,5,24,15,60,9,29.3,24.7,77.0,101325,0,0,0,0,0,0,0,0,0,0,0,18.0,0,0,9999,77777,9,999999999,0,0,0,99,0.2,0,0
2023,5,24,16,60,9,29.1,24.9,78.0,101325,0,0,0,0,0,0,0,0,0,0,0,16.9,0,0,9999,77777,9,999999999,0,0,0,99,0.2,0,0
2023,5,24,17,60,9,29.0,24.7,78.0,101325,0,0,0,0,0,0,0,0,0,0,0,14.8,0,0,9999,77777,9,999999999,0,0,0,99,0.2,0,0
2023,5,24,18,60,9,29.0,24.3,76.0,101325,0,0,0,0,0,0,0,0,0,0,0,11.6,0,0,9999,77777,9,999999999,0,0,0,99,0.2,0,0
2023,5,24,19,60,9,28.9,24.3,76.0,101325,0,0,0,0,0,0,0,0,0,0,0,10.2,0,0,9999,77777,9,999999999,0,0,0,99,0.2,0,0
2023,5,24,20,60,9,28.7,24.0,76.0,101325,0,0,0,0,0,0,0,0,0,0,0,9.8,0,0,9999,77777,9,999999999,0,0,0,99,0.2,0,0
2023,5,24,21,60,9,28.4,24.0,77.0,101325,0,0,0,0,0,0,0,0,0,0,0,9.1,0,0,9999,77777,9,999999999,0,0,0,99,0.2,0,0
2023,5,24,22,60,9,28.3,24.0,77.0,101325,0,0,0,0,0,0,0,0,0,0,0,9.3,0,0,9999,77777,9,999999999,0,0,0,99,0.2,0,0
2023,5,24,23,60,9,28.2,23.9,78.0,101325,0,0,0,0,0,0,0,0,0,0,0,9.7,0,0,9999,77777,9,999999999,0,0,0,99,0.2,0,0
2023,5,24,24,60,9,28.3,23.9,77.0,101325,0,0,0,0,0,0,0,0,0,0,0,9.1,0,0,9999,77777,9,999999999,0,0,0,99,0.2,0,0
2023,5,25,1,60,9,28.7,24.2,76.0,101325,0,0,0,0,0,0,0,0,0,0,0,8.0,0,0,9999,77777,9,999999999,0,0,0,99,0.2,0,0
2023,5,25,2,60,9,29.1,24.1,75.0,101325,0,0,0,0,0,0,0,0,0,0,0,9.4,0,0,9999,77777,9,999999999,0,0,0,99,0.2,0,0
2023,5,25,3,60,9,30.2,23.6,68.0,101325,0,0,0,0,0,0,0,0,0,0,0,11.2,0,0,9999,77777,9,999999999,0,0,0,99,0.2,0,0
2023,5,25,4,60,9,31.2,23.2,63.0,101325,0,0,0,0,0,0,0,0,0,0,0,10.8,0,0,9999,77777,9,999999999,0,0,0,99,0.2,0,0
2023,5,25,5,60,9,32.1,22.9,58.0,101325,0,0,0,0,0,0,0,0,0,0,0,11.6,0,0,9999,77777,9,999999999,0,0,0,99,0.2,0,0
2023,5,25,6,60,9,32.8,22.6,55.0,101325,0,0,0,0,0,0,0,0,0,0,0,13.7,0,0,9999,77777,9,999999999,0,0,0,99,0.2,0,0
2023,5,25,7,60,9,33.2,22.1,52.0,101325,0,0,0,0,0,0,0,0,0,0,0,15.2,0,0,9999,77777,9,999999999,0,0,0,99,0.2,0,0
2023,5,25,8,60,9,33.3,22.1,52.0,101325,0,0,0,0,0,0,0,0,0,0,0,17.0,0,0,9999,77777,9,999999999,0,0,0,99,0.2,0,0
2023,5,25,9,60,9,33.0,22.9,55.0,101325,0,0,0,0,0,0,0,0,0,0,0,18.6,0,0,9999,77777,9,999999999,0,0,0,99,0.2,0,0
2023,5,25,10,60,9,32.9,23.4,57.0,101325,0,0,0,0,0,0,0,0,0,0,0,19.6,0,0,9999,77777,9,999999999,0,0,0,99,0.2,0,0
2023,5,25,11,60,9,32.4,23.0,58.0,101325,0,0,0,0,0,0,0,0,0,0,0,20.4,0,0,9999,77777,9,999999999,0,0,0,99,0.2,0,0
2023,5,25,12,60,9,31.9,22.9,59.0,101325,0,0,0,0,0,0,0,0,0,0,0,20.7,0,0,9999,77777,9,999999999,0,0,0,99,0.2,0,0
2023,5,25,13,60,9,31.2,22.9,61.0,101325,0,0,0,0,0,0,0,0,0,0,0,17.6,0,0,9999,77777,9,999999999,0,0,0,99,0.2,0,0
2023,5,25,14,60,9,30.7,22.9,63.0,101325,0,0,0,0,0,0,0,0,0,0,0,16.2,0,0,9999,77777,9,999999999,0,0,0,99,0.2,0,0
2023,5,25,15,60,9,30.3,22.9,65.0,101325,0,0,0,0,0,0,0,0,0,0,0,14.6,0,0,9999,77777,9,999999999,0,0,0,99,0.2,0,0
2023,5,25,16,60,9,30.2,23.1,66.0,101325,0,0,0,0,0,0,0,0,0,0,0,13.3,0,0,9999,77777,9,999999999,0,0,0,99,0.2,0,0
2023,5,25,17,60,9,30.2,23.0,66.0,101325,0,0,0,0,0,0,0,0,0,0,0,13.0,0,0,9999,77777,9,999999999,0,0,0,99,0.2,0,0
2023,5,25,18,60,9,30.2,23.2,66.0,101325,0,0,0,0,0,0,0,0,0,0,0,12.6,0,0,9999,77777,9,999999999,0,0,0,99,0.2,0,0
2023,5,25,19,60,9,30.0,23.3,67.0,101325,0,0,0,0,0,0,0,0,0,0,0,15.5,0,0,9999,77777,9,999999999,0,0,0,99,0.2,0,0
2023,5,25,20,60,9,29.6,23.9,71.0,101325,0,0,0,0,0,0,0,0,0,0,0,15.5,0,0,9999,77777,9,999999999,0,0,0,99,0.2,0,0
2023,5,25,21,60,9,29.1,24.1,74.0,101325,0,0,0,0,0,0,0,0,0,0,0,14.8,0,0,9999,77777,9,999999999,0,0,0,99,0.2,0,0
2023,5,25,22,60,9,29.1,23.9,74.0,101325,0,0,0,0,0,0,0,0,0,0,0,15.0,0,0,9999,77777,9,999999999,0,0,0,99,0.2,0,0
2023,5,25,23,60,9,29.2,23.6,72.0,101325,0,0,0,0,0,0,0,0,0,0,0,14.9,0,0,9999,77777,9,999999999,0,0,0,99,0.2,0,0
2023,5,25,24,60,9,29.0,23.5,72.0,101325,0,0,0,0,0,0,0,0,0,0,0,14.6,0,0,9999,77777,9,999999999,0,0,0,99,0.2,0,0
2023,5,26,1,60,9,29.2,23.5,71.0,101325,0,0,0,0,0,0,0,0,0,0,0,14.8,0,0,9999,77777,9,999999999,0,0,0,99,0.2,0,0
2023,5,26,2,60,9,29.6,23.0,68.0,101325,0,0,0,0,0,0,0,0,0,0,0,11.5,0,0,9999,77777,9,999999999,0,0,0,99,0.2,0,0
2023,5,26,3,60,9,30.7,22.4,61.0,101325,0,0,0,0,0,0,0,0,0,0,0,11.7,0,0,9999,77777,9,999999999,0,0,0,99,0.2,0,0
2023,5,26,4,60,9,31.4,22.1,58.0,101325,0,0,0,0,0,0,0,0,0,0,0,13.3,0,0,9999,77777,9,999999999,0,0,0,99,0.2,0,0
2023,5,26,5,60,9,32.0,22.2,56.0,101325,0,0,0,0,0,0,0,0,0,0,0,15.9,0,0,9999,77777,9,999999999,0,0,0,99,0.2,0,0
2023,5,26,6,60,9,32.1,22.9,59.0,101325,0,0,0,0,0,0,0,0,0,0,0,17.8,0,0,9999,77777,9,999999999,0,0,0,99,0.2,0,0
2023,5,26,7,60,9,32.3,23.2,59.0,101325,0,0,0,0,0,0,0,0,0,0,0,19.9,0,0,9999,77777,9,999999999,0,0,0,99,0.2,0,0
2023,5,26,8,60,9,32.5,23.4,59.0,101325,0,0,0,0,0,0,0,0,0,0,0,21.2,0,0,9999,77777,9,999999999,0,0,0,99,0.2,0,0
2023,5,26,9,60,9,32.7,23.2,57.0,101325,0,0,0,0,0,0,0,0,0,0,0,21.6,0,0,9999,77777,9,999999999,0,0,0,99,0.2,0,0
2023,5,26,10,60,9,32.6,22.9,57.0,101325,0,0,0,0,0,0,0,0,0,0,0,20.5,0,0,9999,77777,9,999999999,0,0,0,99,0.2,0,0
2023,5,26,11,60,9,32.4,22.8,57.0,101325,0,0,0,0,0,0,0,0,0,0,0,20.2,0,0,9999,77777,9,999999999,0,0,0,99,0.2,0,0
2023,5,26,12,60,9,32.0,22.9,59.0,101325,0,0,0,0,0,0,0,0,0,0,0,19.4,0,0,9999,77777,9,999999999,0,0,0,99,0.2,0,0
2023,5,26,13,60,9,31.3,23.5,63.0,101325,0,0,0,0,0,0,0,0,0,0,0,16.6,0,0,9999,77777,9,999999999,0,0,0,99,0.2,0,0
2023,5,26,14,60,9,30.7,23.5,66.0,101325,0,0,0,0,0,0,0,0,0,0,0,15.5,0,0,9999,77777,9,999999999,0,0,0,99,0.2,0,0
2023,5,26,15,60,9,30.2,23.4,67.0,101325,0,0,0,0,0,0,0,0,0,0,0,13.7,0,0,9999,77777,9,999999999,0,0,0,99,0.2,0,0
2023,5,26,16,60,9,30.0,23.4,68.0,101325,0,0,0,0,0,0,0,0,0,0,0,13.1,0,0,9999,77777,9,999999999,0,0,0,99,0.2,0,0
2023,5,26,17,60,9,29.8,23.3,68.0,101325,0,0,0,0,0,0,0,0,0,0,0,11.8,0,0,9999,77777,9,999999999,0,0,0,99,0.2,0,0
2023,5,26,18,60,9,29.6,22.9,67.0,101325,0,0,0,0,0,0,0,0,0,0,0,13.5,0,0,9999,77777,9,999999999,0,0,0,99,0.2,0,0
2023,5,26,19,60,9,29.1,22.9,69.0,101325,0,0,0,0,0,0,0,0,0,0,0,13.2,0,0,9999,77777,9,999999999,0,0,0,99,0.2,0,0
2023,5,26,20,60,9,28.7,23.0,71.0,101325,0,0,0,0,0,0,0,0,0,0,0,11.0,0,0,9999,77777,9,999999999,0,0,0,99,0.2,0,0
2023,5,26,21,60,9,28.5,23.0,72.0,101325,0,0,0,0,0,0,0,0,0,0,0,9.7,0,0,9999,77777,9,999999999,0,0,0,99,0.2,0,0
2023,5,26,22,60,9,28.3,22.9,73.0,101325,0,0,0,0,0,0,0,0,0,0,0,9.2,0,0,9999,77777,9,999999999,0,0,0,99,0.2,0,0
2023,5,26,23,60,9,28.3,22.9,73.0,101325,0,0,0,0,0,0,0,0,0,0,0,9.3,0,0,9999,77777,9,999999999,0,0,0,99,0.2,0,0
2023,5,26,24,60,9,28.4,22.8,72.0,101325,0,0,0,0,0,0,0,0,0,0,0,8.8,0,0,9999,77777,9,999999999,0,0,0,99,0.2,0,0
2023,5,27,1,60,9,29.1,22.7,68.0,101325,0,0,0,0,0,0,0,0,0,0,0,7.6,0,0,9999,77777,9,999999999,0,0,0,99,0.2,0,0
2023,5,27,2,60,9,29.8,22.5,65.0,101325,0,0,0,0,0,0,0,0,0,0,0,9.9,0,0,9999,77777,9,999999999,0,0,0,99,0.2,0,0
2023,5,27,3,60,9,31.2,21.7,57.0,101325,0,0,0,0,0,0,0,0,0,0,0,13.0,0,0,9999,77777,9,999999999,0,0,0,99,0.2,0,0
2023,5,27,4,60,9,32.1,21.6,54.0,101325,0,0,0,0,0,0,0,0,0,0,0,14.8,0,0,9999,77777,9,999999999,0,0,0,99,0.2,0,0
2023,5,27,5,60,9,32.9,21.3,51.0,101325,0,0,0,0,0,0,0,0,0,0,0,16.2,0,0,9999,77777,9,999999999,0,0,0,99,0.2,0,0
2023,5,27,6,60,9,33.2,21.5,51.0,101325,0,0,0,0,0,0,0,0,0,0,0,18.4,0,0,9999,77777,9,999999999,0,0,0,99,0.2,0,0
2023,5,27,7,60,9,33.6,21.5,49.0,101325,0,0,0,0,0,0,0,0,0,0,0,18.3,0,0,9999,77777,9,999999999,0,0,0,99,0.2,0,0
2023,5,27,8,60,9,33.7,21.9,50.0,101325,0,0,0,0,0,0,0,0,0,0,0,18.6,0,0,9999,77777,9,999999999,0,0,0,99,0.2,0,0
2023,5,27,9,60,9,33.6,22.3,52.0,101325,0,0,0,0,0,0,0,0,0,0,0,18.5,0,0,9999,77777,9,999999999,0,0,0,99,0.2,0,0
2023,5,27,10,60,9,33.2,22.2,53.0,101325,0,0,0,0,0,0,0,0,0,0,0,19.1,0,0,9999,77777,9,999999999,0,0,0,99,0.2,0,0
2023,5,27,11,60,9,33.0,22.0,53.0,101325,0,0,0,0,0,0,0,0,0,0,0,18.8,0,0,9999,77777,9,999999999,0,0,0,99,0.2,0,0
2023,5,27,12,60,9,32.8,21.6,52.0,101325,0,0,0,0,0,0,0,0,0,0,0,18.4,0,0,9999,77777,9,999999999,0,0,0,99,0.2,0,0
2023,5,27,13,60,9,32.0,22.0,55.0,101325,0,0,0,0,0,0,0,0,0,0,0,14.5,0,0,9999,77777,9,999999999,0,0,0,99,0.2,0,0
2023,5,27,14,60,9,31.4,22.2,58.0,101325,0,0,0,0,0,0,0,0,0,0,0,15.6,0,0,9999,77777,9,999999999,0,0,0,99,0.2,0,0
2023,5,27,15,60,9,30.5,23.3,65.0,101325,0,0,0,0,0,0,0,0,0,0,0,14.9,0,0,9999,77777,9,999999999,0,0,0,99,0.2,0,0
2023,5,27,16,60,9,30.2,23.7,68.0,101325,0,0,0,0,0,0,0,0,0,0,0,13.1,0,0,9999,77777,9,999999999,0,0,0,99,0.2,0,0
2023,5,27,17,60,9,29.9,24.0,71.0,101325,0,0,0,0,0,0,0,0,0,0,0,11.7,0,0,9999,77777,9,999999999,0,0,0,99,0.2,0,0
2023,5,27,18,60,9,29.6,24.0,72.0,101325,0,0,0,0,0,0,0,0,0,0,0,12.6,0,0,9999,77777,9,999999999,0,0,0,99,0.2,0,0
2023,5,27,19,60,9,29.3,24.1,74.0,101325,0,0,0,0,0,0,0,0,0,0,0,12.2,0,0,9999,77777,9,999999999,0,0,0,99,0.2,0,0
2023,5,27,20,60,9,29.0,24.1,75.0,101325,0,0,0,0,0,0,0,0,0,0,0,11.7,0,0,9999,77777,9,999999999,0,0,0,99,0.2,0,0
2023,5,27,21,60,9,28.7,24.0,76.0,101325,0,0,0,0,0,0,0,0,0,0,0,10.1,0,0,9999,77777,9,999999999,0,0,0,99,0.2,0,0
2023,5,27,22,60,9,28.5,24.1,77.0,101325,0,0,0,0,0,0,0,0,0,0,0,8.6,0,0,9999,77777,9,999999999,0,0,0,99,0.2,0,0
2023,5,27,23,60,9,28.4,24.0,77.0,101325,0,0,0,0,0,0,0,0,0,0,0,7.9,0,0,9999,77777,9,999999999,0,0,0,99,0.2,0,0
2023,5,27,24,60,9,28.2,24.0,78.0,101325,0,0,0,0,0,0,0,0,0,0,0,6.5,0,0,9999,77777,9,999999999,0,0,0,99,0.2,0,0
2023,5,28,1,60,9,29.5,23.2,69.0,101325,0,0,0,0,0,0,0,0,0,0,0,9.7,0,0,9999,77777,9,999999999,0,0,0,99,0.2,0,0
2023,5,28,2,60,9,29.6,23.2,68.0,101325,0,0,0,0,0,0,0,0,0,0,0,6.4,0,0,9999,77777,9,999999999,0,0,0,99,0.2,0,0
2023,5,28,3,60,9,31.0,22.4,60.0,101325,0,0,0,0,0,0,0,0,0,0,0,8.4,0,0,9999,77777,9,999999999,0,0,0,99,0.2,0,0
2023,5,28,4,60,9,32.0,22.3,57.0,101325,0,0,0,0,0,0,0,0,0,0,0,11.4,0,0,9999,77777,9,999999999,0,0,0,99,0.2,0,0
2023,5,28,5,60,9,32.7,22.3,54.0,101325,0,0,0,0,0,0,0,0,0,0,0,13.7,0,0,9999,77777,9,999999999,0,0,0,99,0.2,0,0
2023,5,28,6,60,9,32.9,22.2,53.0,101325,0,0,0,0,0,0,0,0,0,0,0,15.4,0,0,9999,77777,9,999999999,0,0,0,99,0.2,0,0
2023,5,28,7,60,9,33.4,22.1,52.0,101325,0,0,0,0,0,0,0,0,0,0,0,15.8,0,0,9999,77777,9,999999999,0,0,0,99,0.2,0,0
2023,5,28,8,60,9,33.7,22.6,52.0,101325,0,0,0,0,0,0,0,0,0,0,0,16.8,0,0,9999,77777,9,999999999,0,0,0,99,0.2,0,0
2023,5,28,9,60,9,33.8,22.8,53.0,101325,0,0,0,0,0,0,0,0,0,0,0,18.4,0,0,9999,77777,9,999999999,0,0,0,99,0.2,0,0
2023,5,28,10,60,9,33.5,23.2,55.0,101325,0,0,0,0,0,0,0,0,0,0,0,18.8,0,0,9999,77777,9,999999999,0,0,0,99,0.2,0,0
2023,5,28,11,60,9,33.0,23.4,57.0,101325,0,0,0,0,0,0,0,0,0,0,0,18.2,0,0,9999,77777,9,999999999,0,0,0,99,0.2,0,0
2023,5,28,12,60,9,32.4,23.5,59.0,101325,0,0,0,0,0,0,0,0,0,0,0,18.3,0,0,9999,77777,9,999999999,0,0,0,99,0.2,0,0
2023,5,28,13,60,9,31.9,23.9,63.0,101325,0,0,0,0,0,0,0,0,0,0,0,16.0,0,0,9999,77777,9,999999999,0,0,0,99,0.2,0,0
2023,5,28,14,60,9,31.0,24.6,69.0,101325,0,0,0,0,0,0,0,0,0,0,0,15.9,0,0,9999,77777,9,999999999,0,0,0,99,0.2,0,0
2023,5,28,15,60,9,30.2,24.9,73.0,101325,0,0,0,0,0,0,0,0,0,0,0,14.7,0,0,9999,77777,9,999999999,0,0,0,99,0.2,0,0
2023,5,28,16,60,9,30.1,25.0,74.0,101325,0,0,0,0,0,0,0,0,0,0,0,13.9,0,0,9999,77777,9,999999999,0,0,0,99,0.2,0,0
2023,5,28,17,60,9,30.0,25.1,75.0,101325,0,0,0,0,0,0,0,0,0,0,0,10.2,0,0,9999,77777,9,999999999,0,0,0,99,0.2,0,0
2023,5,28,18,60,9,29.6,25.2,77.0,101325,0,0,0,0,0,0,0,0,0,0,0,7.9,0,0,9999,77777,9,999999999,0,0,0,99,0.2,0,0
2023,5,28,19,60,9,29.2,25.4,80.0,101325,0,0,0,0,0,0,0,0,0,0,0,4.8,0,0,9999,77777,9,999999999,0,0,0,99,0.2,0,0
2023,5,28,20,60,9,28.9,25.5,82.0,101325,0,0,0,0,0,0,0,0,0,0,0,4.9,0,0,9999,77777,9,999999999,0,0,0,99,0.2,0,0
2023,5,28,21,60,9,28.8,25.5,82.0,101325,0,0,0,0,0,0,0,0,0,0,0,4.9,0,0,9999,77777,9,999999999,0,0,0,99,0.2,0,0
2023,5,28,22,60,9,28.4,25.4,84.0,101325,0,0,0,0,0,0,0,0,0,0,0,3.4,0,0,9999,77777,9,999999999,0,0,0,99,0.2,0,0
2023,5,28,23,60,9,28.1,25.4,85.0,101325,0,0,0,0,0,0,0,0,0,0,0,3.9,0,0,9999,77777,9,999999999,0,0,0,99,0.2,0,0
2023,5,28,24,60,9,27.9,25.6,88.0,101325,0,0,0,0,0,0,0,0,0,0,0,3.6,0,0,9999,77777,9,999999999,0,0,0,99,0.2,0,0
2023,5,29,1,60,9,28.5,25.4,84.0,101325,0,0,0,0,0,0,0,0,0,0,0,6.5,0,0,9999,77777,9,999999999,0,0,0,99,0.2,0,0
2023,5,29,2,60,9,28.6,25.4,83.0,101325,0,0,0,0,0,0,0,0,0,0,0,8.2,0,0,9999,77777,9,999999999,0,0,0,99,0.2,0,0
2023,5,29,3,60,9,29.4,25.1,77.0,101325,0,0,0,0,0,0,0,0,0,0,0,7.6,0,0,9999,77777,9,999999999,0,0,0,99,0.2,0,0
2023,5,29,4,60,9,30.7,24.7,70.0,101325,0,0,0,0,0,0,0,0,0,0,0,4.1,0,0,9999,77777,9,999999999,0,0,0,99,0.2,0,0
2023,5,29,5,60,9,32.0,24.2,63.0,101325,0,0,0,0,0,0,0,0,0,0,0,1.1,0,0,9999,77777,9,999999999,0,0,0,99,0.2,0,0
2023,5,29,6,60,9,33.3,24.2,59.0,101325,0,0,0,0,0,0,0,0,0,0,0,8.0,0,0,9999,77777,9,999999999,0,0,0,99,0.2,0,0
2023,5,29,7,60,9,33.6,24.7,60.0,101325,0,0,0,0,0,0,0,0,0,0,0,13.0,0,0,9999,77777,9,999999999,0,0,0,99,0.2,0,0
2023,5,29,8,60,9,33.6,24.4,59.0,101325,0,0,0,0,0,0,0,0,0,0,0,16.8,0,0,9999,77777,9,999999999,0,0,0,99,0.2,0,0
2023,5,29,9,60,9,33.3,24.7,61.0,101325,0,0,0,0,0,0,0,0,0,0,0,20.2,0,0,9999,77777,9,999999999,0,0,0,99,0.2,0,0
2023,5,29,10,60,9,32.6,25.0,64.0,101325,0,0,0,0,0,0,0,0,0,0,0,22.7,0,0,9999,77777,9,999999999,0,0,0,99,0.2,0,0
2023,5,29,11,60,9,32.2,25.1,66.0,101325,0,0,0,0,0,0,0,0,0,0,0,24.0,0,0,9999,77777,9,999999999,0,0,0,99,0.2,0,0
2023,5,29,12,60,9,31.8,25.1,68.0,101325,0,0,0,0,0,0,0,0,0,0,0,22.8,0,0,9999,77777,9,999999999,0,0,0,99,0.2,0,0
2023,5,29,13,60,9,31.2,25.6,72.0,101325,0,0,0,0,0,0,0,0,0,0,0,22.6,0,0,9999,77777,9,999999999,0,0,0,99,0.2,0,0
2023,5,29,14,60,9,30.4,25.5,75.0,101325,0,0,0,0,0,0,0,0,0,0,0,18.5,0,0,9999,77777,9,999999999,0,0,0,99,0.2,0,0
2023,5,29,15,60,9,29.7,25.5,78.0,101325,0,0,0,0,0,0,0,0,0,0,0,15.5,0,0,9999,77777,9,999999999,0,0,0,99,0.2,0,0
2023,5,29,16,60,9,29.4,25.5,80.0,101325,0,0,0,0,0,0,0,0,0,0,0,12.8,0,0,9999,77777,9,999999999,0,0,0,99,0.2,0,0
2023,5,29,17,60,9,29.1,25.8,82.0,101325,0,0,0,0,0,0,0,0,0,0,0,12.8,0,0,9999,77777,9,999999999,0,0,0,99,0.2,0,0
2023,5,29,18,60,9,28.9,26.0,84.0,101325,0,0,0,0,0,0,0,0,0,0,0,9.2,0,0,9999,77777,9,999999999,0,0,0,99,0.2,0,0
2023,5,29,19,60,9,28.7,26.1,86.0,101325,0,0,0,0,0,0,0,0,0,0,0,7.3,0,0,9999,77777,9,999999999,0,0,0,99,0.2,0,0
2023,5,29,20,60,9,28.5,26.2,87.0,101325,0,0,0,0,0,0,0,0,0,0,0,4.6,0,0,9999,77777,9,999999999,0,0,0,99,0.2,0,0
2023,5,29,21,60,9,28.1,26.2,89.0,101325,0,0,0,0,0,0,0,0,0,0,0,3.1,0,0,9999,77777,9,999999999,0,0,0,99,0.2,0,0
2023,5,29,22,60,9,27.5,26.1,92.0,101325,0,0,0,0,0,0,0,0,0,0,0,3.6,0,0,9999,77777,9,999999999,0,0,0,99,0.2,0,0
2023,5,29,23,60,9,27.4,26.2,93.0,101325,0,0,0,0,0,0,0,0,0,0,0,2.6,0,0,9999,77777,9,999999999,0,0,0,99,0.2,0,0
2023,5,29,24,60,9,27.2,26.3,95.0,101325,0,0,0,0,0,0,0,0,0,0,0,2.5,0,0,9999,77777,9,999999999,0,0,0,99,0.2,0,0
2023,5,30,1,60,9,28.2,26.7,92.0,101325,0,0,0,0,0,0,0,0,0,0,0,6.6,0,0,9999,77777,9,999999999,0,0,0,99,0.2,0,0
2023,5,30,2,60,9,28.5,26.4,89.0,101325,0,0,0,0,0,0,0,0,0,0,0,8.3,0,0,9999,77777,9,999999999,0,0,0,99,0.2,0,0
2023,5,30,3,60,9,29.5,26.2,82.0,101325,0,0,0,0,0,0,0,0,0,0,0,8.0,0,0,9999,77777,9,999999999,0,0,0,99,0.2,0,0
2023,5,30,4,60,9,30.9,25.6,73.0,101325,0,0,0,0,0,0,0,0,0,0,0,5.1,0,0,9999,77777,9,999999999,0,0,0,99,0.2,0,0
2023,5,30,5,60,9,32.3,25.4,67.0,101325,0,0,0,0,0,0,0,0,0,0,0,2.3,0,0,9999,77777,9,999999999,0,0,0,99,0.2,0,0
2023,5,30,6,60,9,33.4,25.8,65.0,101325,0,0,0,0,0,0,0,0,0,0,0,9.8,0,0,9999,77777,9,999999999,0,0,0,99,0.2,0,0
2023,5,30,7,60,9,33.5,26.2,66.0,101325,0,0,0,0,0,0,0,0,0,0,0,13.7,0,0,9999,77777,9,999999999,0,0,0,99,0.2,0,0
2023,5,30,8,60,9,33.5,25.6,64.0,101325,0,0,0,0,0,0,0,0,0,0,0,16.1,0,0,9999,77777,9,999999999,0,0,0,99,0.2,0,0
2023,5,30,9,60,9,33.9,24.9,60.0,101325,0,0,0,0,0,0,0,0,0,0,0,18.1,0,0,9999,77777,9,999999999,0,0,0,99,0.2,0,0
2023,5,30,10,60,9,33.4,25.7,64.0,101325,0,0,0,0,0,0,0,0,0,0,0,18.4,0,0,9999,77777,9,999999999,0,0,0,99,0.2,0,0
2023,5,30,11,60,9,32.9,26.1,68.0,101325,0,0,0,0,0,0,0,0,0,0,0,20.3,0,0,9999,77777,9,999999999,0,0,0,99,0.2,0,0
2023,5,30,12,60,9,32.0,26.3,72.0,101325,0,0,0,0,0,0,0,0,0,0,0,19.7,0,0,9999,77777,9,999999999,0,0,0,99,0.2,0,0
2023,5,30,13,60,9,31.1,26.5,77.0,101325,0,0,0,0,0,0,0,0,0,0,0,18.9,0,0,9999,77777,9,999999999,0,0,0,99,0.2,0,0
2023,5,30,14,60,9,30.6,26.6,79.0,101325,0,0,0,0,0,0,0,0,0,0,0,16.8,0,0,9999,77777,9,999999999,0,0,0,99,0.2,0,0
2023,5,30,15,60,9,29.8,26.6,83.0,101325,0,0,0,0,0,0,0,0,0,0,0,19.1,0,0,9999,77777,9,999999999,0,0,0,99,0.2,0,0
2023,5,30,16,60,9,29.5,26.4,83.0,101325,0,0,0,0,0,0,0,0,0,0,0,17.9,0,0,9999,77777,9,999999999,0,0,0,99,0.2,0,0
2023,5,30,17,60,9,29.3,26.5,85.0,101325,0,0,0,0,0,0,0,0,0,0,0,14.1,0,0,9999,77777,9,999999999,0,0,0,99,0.2,0,0
2023,5,30,18,60,9,29.0,26.5,86.0,101325,0,0,0,0,0,0,0,0,0,0,0,5.9,0,0,9999,77777,9,999999999,0,0,0,99,0.2,0,0
2023,5,30,19,60,9,28.5,26.6,90.0,101325,0,0,0,0,0,0,0,0,0,0,0,3.7,0,0,9999,77777,9,999999999,0,0,0,99,0.2,0,0
2023,5,30,20,60,9,28.6,27.0,91.0,101325,0,0,0,0,0,0,0,0,0,0,0,8.1,0,0,9999,77777,9,999999999,0,0,0,99,0.2,0,0
2023,5,30,21,60,9,28.6,26.9,90.0,101325,0,0,0,0,0,0,0,0,0,0,0,10.9,0,0,9999,77777,9,999999999,0,0,0,99,0.2,0,0
2023,5,30,22,60,9,28.3,27.0,93.0,101325,0,0,0,0,0,0,0,0,0,0,0,8.1,0,0,9999,77777,9,999999999,0,0,0,99,0.2,0,0
2023,5,30,23,60,9,28.1,27.1,94.0,101325,0,0,0,0,0,0,0,0,0,0,0,8.6,0,0,9999,77777,9,999999999,0,0,0,99,0.2,0,0
2023,5,30,24,60,9,27.9,27.1,95.0,101325,0,0,0,0,0,0,0,0,0,0,0,5.8,0,0,9999,77777,9,999999999,0,0,0,99,0.2,0,0
2023,5,31,1,60,9,28.4,27.5,95.0,101325,0,0,0,0,0,0,0,0,0,0,0,6.4,0,0,9999,77777,9,999999999,0,0,0,99,0.2,0,0
2023,5,31,2,60,9,28.6,27.1,92.0,101325,0,0,0,0,0,0,0,0,0,0,0,6.4,0,0,9999,77777,9,999999999,0,0,0,99,0.2,0,0
2023,5,31,3,60,9,29.4,26.6,85.0,101325,0,0,0,0,0,0,0,0,0,0,0,6.2,0,0,9999,77777,9,999999999,0,0,0,99,0.2,0,0
2023,5,31,4,60,9,31.0,25.4,72.0,101325,0,0,0,0,0,0,0,0,0,0,0,4.2,0,0,9999,77777,9,999999999,0,0,0,99,0.2,0,0
2023,5,31,5,60,9,32.8,24.4,61.0,101325,0,0,0,0,0,0,0,0,0,0,0,4.6,0,0,9999,77777,9,999999999,0,0,0,99,0.2,0,0
2023,5,31,6,60,9,34.1,24.3,57.0,101325,0,0,0,0,0,0,0,0,0,0,0,9.0,0,0,9999,77777,9,999999999,0,0,0,99,0.2,0,0
2023,5,31,7,60,9,34.5,24.9,57.0,101325,0,0,0,0,0,0,0,0,0,0,0,13.8,0,0,9999,77777,9,999999999,0,0,0,99,0.2,0,0
2023,5,31,8,60,9,34.4,25.0,58.0,101325,0,0,0,0,0,0,0,0,0,0,0,18.6,0,0,9999,77777,9,999999999,0,0,0,99,0.2,0,0
2023,5,31,9,60,9,34.2,25.5,61.0,101325,0,0,0,0,0,0,0,0,0,0,0,22.4,0,0,9999,77777,9,999999999,0,0,0,99,0.2,0,0
2023,5,31,10,60,9,33.7,25.4,62.0,101325,0,0,0,0,0,0,0,0,0,0,0,23.5,0,0,9999,77777,9,999999999,0,0,0,99,0.2,0,0
2023,5,31,11,60,9,33.2,25.4,64.0,101325,0,0,0,0,0,0,0,0,0,0,0,23.6,0,0,9999,77777,9,999999999,0,0,0,99,0.2,0,0
2023,5,31,12,60,9,32.6,25.4,66.0,101325,0,0,0,0,0,0,0,0,0,0,0,22.7,0,0,9999,77777,9,999999999,0,0,0,99,0.2,0,0
2023,5,31,13,60,9,31.4,26.5,75.0,101325,0,0,0,0,0,0,0,0,0,0,0,24.7,0,0,9999,77777,9,999999999,0,0,0,99,0.2,0,0
2023,5,31,14,60,9,30.5,26.4,79.0,101325,0,0,0,0,0,0,0,0,0,0,0,23.2,0,0,9999,77777,9,999999999,0,0,0,99,0.2,0,0
2023,5,31,15,60,9,29.6,26.4,83.0,101325,0,0,0,0,0,0,0,0,0,0,0,21.1,0,0,9999,77777,9,999999999,0,0,0,99,0.2,0,0
2023,5,31,16,60,9,29.3,26.6,86.0,101325,0,0,0,0,0,0,0,0,0,0,0,18.4,0,0,9999,77777,9,999999999,0,0,0,99,0.2,0,0
2023,5,31,17,60,9,29.0,26.6,87.0,101325,0,0,0,0,0,0,0,0,0,0,0,16.5,0,0,9999,77777,9,999999999,0,0,0,99,0.2,0,0
2023,5,31,18,60,9,28.7,26.8,90.0,101325,0,0,0,0,0,0,0,0,0,0,0,12.5,0,0,9999,77777,9,999999999,0,0,0,99,0.2,0,0
2023,5,31,19,60,9,28.5,27.0,92.0,101325,0,0,0,0,0,0,0,0,0,0,0,13.4,0,0,9999,77777,9,999999999,0,0,0,99,0.2,0,0
2023,5,31,20,60,9,28.2,27.0,93.0,101325,0,0,0,0,0,0,0,0,0,0,0,10.2,0,0,9999,77777,9,999999999,0,0,0,99,0.2,0,0
2023,5,31,21,60,9,28.0,27.0,95.0,101325,0,0,0,0,0,0,0,0,0,0,0,10.6,0,0,9999,77777,9,999999999,0,0,0,99,0.2,0,0
2023,5,31,22,60,9,27.8,27.1,96.0,101325,0,0,0,0,0,0,0,0,0,0,0,8.3,0,0,9999,77777,9,999999999,0,0,0,99,0.2,0,0
2023,5,31,23,60,9,27.3,26.8,97.0,101325,0,0,0,0,0,0,0,0,0,0,0,5.8,0,0,9999,77777,9,999999999,0,0,0,99,0.2,0,0
2023,5,31,24,60,9,27.1,25.9,93.0,101325,0,0,0,0,0,0,0,0,0,0,0,7.2,0,0,9999,77777,9,999999999,0,0,0,99,0.2,0,0
2023,6,1,1,60,9,27.7,26.8,95.0,101325,0,0,0,0,0,0,0,0,0,0,0,3.7,0,0,9999,77777,9,999999999,0,0,0,99,0.2,0,0
2023,6,1,2,60,9,27.8,26.8,94.0,101325,0,0,0,0,0,0,0,0,0,0,0,5.3,0,0,9999,77777,9,999999999,0,0,0,99,0.2,0,0
2023,6,1,3,60,9,29.0,26.4,86.0,101325,0,0,0,0,0,0,0,0,0,0,0,5.5,0,0,9999,77777,9,999999999,0,0,0,99,0.2,0,0
2023,6,1,4,60,9,30.3,25.8,77.0,101325,0,0,0,0,0,0,0,0,0,0,0,3.3,0,0,9999,77777,9,999999999,0,0,0,99,0.2,0,0
2023,6,1,5,60,9,31.7,25.2,69.0,101325,0,0,0,0,0,0,0,0,0,0,0,2.2,0,0,9999,77777,9,999999999,0,0,0,99,0.2,0,0
2023,6,1,6,60,9,32.9,25.6,66.0,101325,0,0,0,0,0,0,0,0,0,0,0,9.0,0,0,9999,77777,9,999999999,0,0,0,99,0.2,0,0
2023,6,1,7,60,9,33.2,26.1,67.0,101325,0,0,0,0,0,0,0,0,0,0,0,13.7,0,0,9999,77777,9,999999999,0,0,0,99,0.2,0,0
2023,6,1,8,60,9,33.5,25.3,62.0,101325,0,0,0,0,0,0,0,0,0,0,0,16.5,0,0,9999,77777,9,999999999,0,0,0,99,0.2,0,0
2023,6,1,9,60,9,33.5,25.1,62.0,101325,0,0,0,0,0,0,0,0,0,0,0,20.3,0,0,9999,77777,9,999999999,0,0,0,99,0.2,0,0
2023,6,1,10,60,9,33.2,24.4,60.0,101325,0,0,0,0,0,0,0,0,0,0,0,21.5,0,0,9999,77777,9,999999999,0,0,0,99,0.2,0,0
2023,6,1,11,60,9,32.7,25.0,64.0,101325,0,0,0,0,0,0,0,0,0,0,0,21.1,0,0,9999,77777,9,999999999,0,0,0,99,0.2,0,0
2023,6,1,12,60,9,32.0,25.1,67.0,101325,0,0,0,0,0,0,0,0,0,0,0,21.9,0,0,9999,77777,9,999999999,0,0,0,99,0.2,0,0
2023,6,1,13,60,9,30.9,25.9,75.0,101325,0,0,0,0,0,0,0,0,0,0,0,20.9,0,0,9999,77777,9,999999999,0,0,0,99,0.2,0,0
2023,6,1,14,60,9,30.0,26.0,79.0,101325,0,0,0,0,0,0,0,0,0,0,0,18.7,0,0,9999,77777,9,999999999,0,0,0,99,0.2,0,0
2023,6,1,15,60,9,29.2,26.3,84.0,101325,0,0,0,0,0,0,0,0,0,0,0,16.8,0,0,9999,77777,9,999999999,0,0,0,99,0.2,0,0
2023,6,1,16,60,9,29.0,26.3,86.0,101325,0,0,0,0,0,0,0,0,0,0,0,13.4,0,0,9999,77777,9,999999999,0,0,0,99,0.2,0,0
2023,6,1,17,60,9,28.7,26.4,87.0,101325,0,0,0,0,0,0,0,0,0,0,0,7.8,0,0,9999,77777,9,999999999,0,0,0,99,0.2,0,0
2023,6,1,18,60,9,28.5,26.6,89.0,101325,0,0,0,0,0,0,0,0,0,0,0,6.9,0,0,9999,77777,9,999999999,0,0,0,99,0.2,0,0
2023,6,1,19,60,9,28.4,26.4,89.0,101325,0,0,0,0,0,0,0,0,0,0,0,7.3,0,0,9999,77777,9,999999999,0,0,0,99,0.2,0,0
2023,6,1,20,60,9,28.3,26.3,89.0,101325,0,0,0,0,0,0,0,0,0,0,0,9.3,0,0,9999,77777,9,999999999,0,0,0,99,0.2,0,0
2023,6,1,21,60,9,28.2,26.1,88.0,101325,0,0,0,0,0,0,0,0,0,0,0,9.4,0,0,9999,77777,9,999999999,0,0,0,99,0.2,0,0
2023,6,1,22,60,9,28.0,26.0,89.0,101325,0,0,0,0,0,0,0,0,0,0,0,8.2,0,0,9999,77777,9,999999999,0,0,0,99,0.2,0,0
2023,6,1,23,60,9,28.0,25.7,87.0,101325,0,0,0,0,0,0,0,0,0,0,0,7.1,0,0,9999,77777,9,999999999,0,0,0,99,0.2,0,0
2023,6,1,24,60,9,28.1,25.4,85.0,101325,0,0,0,0,0,0,0,0,0,0,0,6.0,0,0,9999,77777,9,999999999,0,0,0,99,0.2,0,0
2023,6,2,1,60,9,28.1,25.4,85.0,101325,0,0,0,0,0,0,0,0,0,0,0,2.9,0,0,9999,77777,9,999999999,0,0,0,99,0.2,0,0
2023,6,2,2,60,9,28.5,25.7,85.0,101325,0,0,0,0,0,0,0,0,0,0,0,3.0,0,0,9999,77777,9,999999999,0,0,0,99,0.2,0,0
2023,6,2,3,60,9,29.4,25.6,80.0,101325,0,0,0,0,0,0,0,0,0,0,0,2.2,0,0,9999,77777,9,999999999,0,0,0,99,0.2,0,0
2023,6,2,4,60,9,30.8,24.7,70.0,101325,0,0,0,0,0,0,0,0,0,0,0,6.3,0,0,9999,77777,9,999999999,0,0,0,99,0.2,0,0
2023,6,2,5,60,9,32.1,24.1,63.0,101325,0,0,0,0,0,0,0,0,0,0,0,9.9,0,0,9999,77777,9,999999999,0,0,0,99,0.2,0,0
2023,6,2,6,60,9,32.8,24.0,60.0,101325,0,0,0,0,0,0,0,0,0,0,0,13.0,0,0,9999,77777,9,999999999,0,0,0,99,0.2,0,0
2023,6,2,7,60,9,33.2,23.9,58.0,101325,0,0,0,0,0,0,0,0,0,0,0,13.6,0,0,9999,77777,9,999999999,0,0,0,99,0.2,0,0
2023,6,2,8,60,9,33.4,24.2,59.0,101325,0,0,0,0,0,0,0,0,0,0,0,15.0,0,0,9999,77777,9,999999999,0,0,0,99,0.2,0,0
2023,6,2,9,60,9,33.4,24.2,58.0,101325,0,0,0,0,0,0,0,0,0,0,0,16.4,0,0,9999,77777,9,999999999,0,0,0,99,0.2,0,0
2023,6,2,10,60,9,33.2,24.2,59.0,101325,0,0,0,0,0,0,0,0,0,0,0,17.7,0,0,9999,77777,9,999999999,0,0,0,99,0.2,0,0
2023,6,2,11,60,9,32.8,24.3,61.0,101325,0,0,0,0,0,0,0,0,0,0,0,18.2,0,0,9999,77777,9,999999999,0,0,0,99,0.2,0,0
2023,6,2,12,60,9,32.2,24.6,64.0,101325,0,0,0,0,0,0,0,0,0,0,0,17.8,0,0,9999,77777,9,999999999,0,0,0,99,0.2,0,0
2023,6,2,13,60,9,31.5,24.1,65.0,101325,0,0,0,0,0,0,0,0,0,0,0,17.1,0,0,9999,77777,9,999999999,0,0,0,99,0.2,0,0
2023,6,2,14,60,9,30.8,24.2,68.0,101325,0,0,0,0,0,0,0,0,0,0,0,16.5,0,0,9999,77777,9,999999999,0,0,0,99,0.2,0,0
2023,6,2,15,60,9,30.3,24.3,71.0,101325,0,0,0,0,0,0,0,0,0,0,0,13.8,0,0,9999,77777,9,999999999,0,0,0,99,0.2,0,0
2023,6,2,16,60,9,30.2,24.4,71.0,101325,0,0,0,0,0,0,0,0,0,0,0,13.4,0,0,9999,77777,9,999999999,0,0,0,99,0.2,0,0
2023,6,2,17,60,9,30.1,24.4,71.0,101325,0,0,0,0,0,0,0,0,0,0,0,12.3,0,0,9999,77777,9,999999999,0,0,0,99,0.2,0,0
2023,6,2,18,60,9,30.1,24.5,72.0,101325,0,0,0,0,0,0,0,0,0,0,0,11.3,0,0,9999,77777,9,999999999,0,0,0,99,0.2,0,0
2023,6,2,19,60,9,29.9,24.5,73.0,101325,0,0,0,0,0,0,0,0,0,0,0,11.5,0,0,9999,77777,9,999999999,0,0,0,99,0.2,0,0
2023,6,2,20,60,9,29.6,24.5,74.0,101325,0,0,0,0,0,0,0,0,0,0,0,11.5,0,0,9999,77777,9,999999999,0,0,0,99,0.2,0,0
2023,6,2,21,60,9,29.4,24.5,75.0,101325,0,0,0,0,0,0,0,0,0,0,0,10.3,0,0,9999,77777,9,999999999,0,0,0,99,0.2,0,0
2023,6,2,22,60,9,29.2,24.5,76.0,101325,0,0,0,0,0,0,0,0,0,0,0,9.4,0,0,9999,77777,9,999999999,0,0,0,99,0.2,0,0
2023,6,2,23,60,9,29.0,24.8,78.0,101325,0,0,0,0,0,0,0,0,0,0,0,8.3,0,0,9999,77777,9,999999999,0,0,0,99,0.2,0,0
2023,6,2,24,60,9,29.2,24.9,78.0,101325,0,0,0,0,0,0,0,0,0,0,0,7.6,0,0,9999,77777,9,999999999,0,0,0,99,0.2,0,0
2023,6,3,1,60,9,29.2,25.2,79.0,101325,0,0,0,0,0,0,0,0,0,0,0,10.5,0,0,9999,77777,9,999999999,0,0,0,99,0.2,0,0
2023,6,3,2,60,9,29.7,25.1,76.0,101325,0,0,0,0,0,0,0,0,0,0,0,9.8,0,0,9999,77777,9,999999999,0,0,0,99,0.2,0,0
2023,6,3,3,60,9,30.8,24.4,69.0,101325,0,0,0,0,0,0,0,0,0,0,0,10.8,0,0,9999,77777,9,999999999,0,0,0,99,0.2,0,0
2023,6,3,4,60,9,31.7,24.1,64.0,101325,0,0,0,0,0,0,0,0,0,0,0,10.1,0,0,9999,77777,9,999999999,0,0,0,99,0.2,0,0
2023,6,3,5,60,9,32.6,23.9,60.0,101325,0,0,0,0,0,0,0,0,0,0,0,11.2,0,0,9999,77777,9,999999999,0,0,0,99,0.2,0,0
2023,6,3,6,60,9,33.5,23.7,56.0,101325,0,0,0,0,0,0,0,0,0,0,0,13.3,0,0,9999,77777,9,999999999,0,0,0,99,0.2,0,0
2023,6,3,7,60,9,34.0,23.6,55.0,101325,0,0,0,0,0,0,0,0,0,0,0,15.2,0,0,9999,77777,9,999999999,0,0,0,99,0.2,0,0
2023,6,3,8,60,9,34.1,23.4,54.0,101325,0,0,0,0,0,0,0,0,0,0,0,15.9,0,0,9999,77777,9,999999999,0,0,0,99,0.2,0,0
2023,6,3,9,60,9,34.6,23.3,52.0,101325,0,0,0,0,0,0,0,0,0,0,0,17.1,0,0,9999,77777,9,999999999,0,0,0,99,0.2,0,0
2023,6,3,10,60,9,34.4,23.2,52.0,101325,0,0,0,0,0,0,0,0,0,0,0,18.7,0,0,9999,77777,9,999999999,0,0,0,99,0.2,0,0
2023,6,3,11,60,9,33.6,23.3,55.0,101325,0,0,0,0,0,0,0,0,0,0,0,18.0,0,0,9999,77777,9,999999999,0,0,0,99,0.2,0,0
2023,6,3,12,60,9,33.3,23.2,56.0,101325,0,0,0,0,0,0,0,0,0,0,0,18.1,0,0,9999,77777,9,999999999,0,0,0,99,0.2,0,0
2023,6,3,13,60,9,31.9,24.1,63.0,101325,0,0,0,0,0,0,0,0,0,0,0,17.7,0,0,9999,77777,9,999999999,0,0,0,99,0.2,0,0
2023,6,3,14,60,9,31.2,24.2,67.0,101325,0,0,0,0,0,0,0,0,0,0,0,16.7,0,0,9999,77777,9,999999999,0,0,0,99,0.2,0,0
2023,6,3,15,60,9,30.6,24.4,70.0,101325,0,0,0,0,0,0,0,0,0,0,0,15.8,0,0,9999,77777,9,999999999,0,0,0,99,0.2,0,0
2023,6,3,16,60,9,30.5,24.5,71.0,101325,0,0,0,0,0,0,0,0,0,0,0,14.9,0,0,9999,77777,9,999999999,0,0,0,99,0.2,0,0
2023,6,3,17,60,9,30.4,24.8,72.0,101325,0,0,0,0,0,0,0,0,0,0,0,12.6,0,0,9999,77777,9,999999999,0,0,0,99,0.2,0,0
2023,6,3,18,60,9,30.2,24.8,73.0,101325,0,0,0,0,0,0,0,0,0,0,0,11.2,0,0,9999,77777,9,999999999,0,0,0,99,0.2,0,0
2023,6,3,19,60,9,30.1,25.0,74.0,101325,0,0,0,0,0,0,0,0,0,0,0,9.4,0,0,9999,77777,9,999999999,0,0,0,99,0.2,0,0
2023,6,3,20,60,9,29.9,25.2,76.0,101325,0,0,0,0,0,0,0,0,0,0,0,8.4,0,0,9999,77777,9,999999999,0,0,0,99,0.2,0,0
2023,6,3,21,60,9,29.7,25.2,77.0,101325,0,0,0,0,0,0,0,0,0,0,0,8.7,0,0,9999,77777,9,999999999,0,0,0,99,0.2,0,0
2023,6,3,22,60,9,29.4,25.2,78.0,101325,0,0,0,0,0,0,0,0,0,0,0,9.4,0,0,9999,77777,9,999999999,0,0,0,99,0.2,0,0
2023,6,3,23,60,9,29.0,25.2,80.0,101325,0,0,0,0,0,0,0,0,0,0,0,9.4,0,0,9999,77777,9,999999999,0,0,0,99,0.2,0,0
2023,6,3,24,60,9,29.0,25.3,80.0,101325,0,0,0,0,0,0,0,0,0,0,0,7.7,0,0,9999,77777,9,999999999,0,0,0,99,0.2,0,0
2023,6,4,1,60,9,29.4,25.1,78.0,101325,0,0,0,0,0,0,0,0,0,0,0,9.4,0,0,9999,77777,9,999999999,0,0,0,99,0.2,0,0
2023,6,4,2,60,9,29.6,25.2,77.0,101325,0,0,0,0,0,0,0,0,0,0,0,10.2,0,0,9999,77777,9,999999999,0,0,0,99,0.2,0,0
2023,6,4,3,60,9,30.4,24.7,71.0,101325,0,0,0,0,0,0,0,0,0,0,0,12.3,0,0,9999,77777,9,999999999,0,0,0,99,0.2,0,0
2023,6,4,4,60,9,31.0,24.7,69.0,101325,0,0,0,0,0,0,0,0,0,0,0,13.0,0,0,9999,77777,9,999999999,0,0,0,99,0.2,0,0
2023,6,4,5,60,9,31.9,24.5,65.0,101325,0,0,0,0,0,0,0,0,0,0,0,15.3,0,0,9999,77777,9,999999999,0,0,0,99,0.2,0,0
2023,6,4,6,60,9,32.5,24.4,63.0,101325,0,0,0,0,0,0,0,0,0,0,0,17.1,0,0,9999,77777,9,999999999,0,0,0,99,0.2,0,0
2023,6,4,7,60,9,33.3,24.3,59.0,101325,0,0,0,0,0,0,0,0,0,0,0,18.7,0,0,9999,77777,9,999999999,0,0,0,99,0.2,0,0
2023,6,4,8,60,9,33.6,24.2,58.0,101325,0,0,0,0,0,0,0,0,0,0,0,19.1,0,0,9999,77777,9,999999999,0,0,0,99,0.2,0,0
2023,6,4,9,60,9,32.4,23.9,61.0,101325,0,0,0,0,0,0,0,0,0,0,0,16.6,0,0,9999,77777,9,999999999,0,0,0,99,0.2,0,0
2023,6,4,10,60,9,33.2,24.1,59.0,101325,0,0,0,0,0,0,0,0,0,0,0,12.3,0,0,9999,77777,9,999999999,0,0,0,99,0.2,0,0
2023,6,4,11,60,9,33.1,24.1,59.0,101325,0,0,0,0,0,0,0,0,0,0,0,12.4,0,0,9999,77777,9,999999999,0,0,0,99,0.2,0,0
2023,6,4,12,60,9,32.4,24.2,62.0,101325,0,0,0,0,0,0,0,0,0,0,0,14.7,0,0,9999,77777,9,999999999,0,0,0,99,0.2,0,0
2023,6,4,13,60,9,31.9,24.4,65.0,101325,0,0,0,0,0,0,0,0,0,0,0,13.7,0,0,9999,77777,9,999999999,0,0,0,99,0.2,0,0
2023,6,4,14,60,9,31.3,24.4,67.0,101325,0,0,0,0,0,0,0,0,0,0,0,13.4,0,0,9999,77777,9,999999999,0,0,0,99,0.2,0,0
2023,6,4,15,60,9,30.5,24.9,72.0,101325,0,0,0,0,0,0,0,0,0,0,0,14.1,0,0,9999,77777,9,999999999,0,0,0,99,0.2,0,0
2023,6,4,16,60,9,30.1,25.2,75.0,101325,0,0,0,0,0,0,0,0,0,0,0,12.9,0,0,9999,77777,9,999999999,0,0,0,99,0.2,0,0
2023,6,4,17,60,9,29.8,25.2,77.0,101325,0,0,0,0,0,0,0,0,0,0,0,10.2,0,0,9999,77777,9,999999999,0,0,0,99,0.2,0,0
2023,6,4,18,60,9,29.4,25.6,80.0,101325,0,0,0,0,0,0,0,0,0,0,0,8.2,0,0,9999,77777,9,999999999,0,0,0,99,0.2,0,0
2023,6,4,19,60,9,29.1,25.8,82.0,101325,0,0,0,0,0,0,0,0,0,0,0,7.7,0,0,9999,77777,9,999999999,0,0,0,99,0.2,0,0
2023,6,4,20,60,9,29.0,25.9,83.0,101325,0,0,0,0,0,0,0,0,0,0,0,9.7,0,0,9999,77777,9,999999999,0,0,0,99,0.2,0,0
2023,6,4,21,60,9,28.9,25.8,84.0,101325,0,0,0,0,0,0,0,0,0,0,0,8.3,0,0,9999,77777,9,999999999,0,0,0,99,0.2,0,0
2023,6,4,22,60,9,28.8,25.8,84.0,101325,0,0,0,0,0,0,0,0,0,0,0,8.3,0,0,9999,77777,9,999999999,0,0,0,99,0.2,0,0
2023,6,4,23,60,9,28.7,25.9,85.0,101325,0,0,0,0,0,0,0,0,0,0,0,7.7,0,0,9999,77777,9,999999999,0,0,0,99,0.2,0,0
2023,6,4,24,60,9,28.6,25.9,86.0,101325,0,0,0,0,0,0,0,0,0,0,0,5.1,0,0,9999,77777,9,999999999,0,0,0,99,0.2,0,0
2023,6,5,1,60,9,28.8,25.7,83.0,101325,0,0,0,0,0,0,0,0,0,0,0,6.7,0,0,9999,77777,9,999999999,0,0,0,99,0.2,0,0
2023,6,5,2,60,9,29.3,25.4,79.0,101325,0,0,0,0,0,0,0,0,0,0,0,7.6,0,0,9999,77777,9,999999999,0,0,0,99,0.2,0,0
2023,6,5,3,60,9,30.4,24.6,71.0,101325,0,0,0,0,0,0,0,0,0,0,0,10.0,0,0,9999,77777,9,999999999,0,0,0,99,0.2,0,0
2023,6,5,4,60,9,31.3,24.3,67.0,101325,0,0,0,0,0,0,0,0,0,0,0,11.6,0,0,9999,77777,9,999999999,0,0,0,99,0.2,0,0
2023,6,5,5,60,9,31.8,24.3,65.0,101325,0,0,0,0,0,0,0,0,0,0,0,13.7,0,0,9999,77777,9,999999999,0,0,0,99,0.2,0,0
2023,6,5,6,60,9,32.3,24.2,62.0,101325,0,0,0,0,0,0,0,0,0,0,0,15.2,0,0,9999,77777,9,999999999,0,0,0,99,0.2,0,0
2023,6,5,7,60,9,32.8,24.1,60.0,101325,0,0,0,0,0,0,0,0,0,0,0,17.3,0,0,9999,77777,9,999999999,0,0,0,99,0.2,0,0
2023,6,5,8,60,9,33.1,23.9,59.0,101325,0,0,0,0,0,0,0,0,0,0,0,18.4,0,0,9999,77777,9,999999999,0,0,0,99,0.2,0,0
2023,6,5,9,60,9,33.2,23.7,58.0,101325,0,0,0,0,0,0,0,0,0,0,0,19.6,0,0,9999,77777,9,999999999,0,0,0,99,0.2,0,0
2023,6,5,10,60,9,33.2,23.4,57.0,101325,0,0,0,0,0,0,0,0,0,0,0,18.8,0,0,9999,77777,9,999999999,0,0,0,99,0.2,0,0
2023,6,5,11,60,9,32.6,23.9,60.0,101325,0,0,0,0,0,0,0,0,0,0,0,18.6,0,0,9999,77777,9,999999999,0,0,0,99,0.2,0,0
2023,6,5,12,60,9,32.1,24.1,63.0,101325,0,0,0,0,0,0,0,0,0,0,0,17.9,0,0,9999,77777,9,999999999,0,0,0,99,0.2,0,0
2023,6,5,13,60,9,31.0,24.4,68.0,101325,0,0,0,0,0,0,0,0,0,0,0,16.4,0,0,9999,77777,9,999999999,0,0,0,99,0.2,0,0
2023,6,5,14,60,9,30.3,24.3,70.0,101325,0,0,0,0,0,0,0,0,0,0,0,15.8,0,0,9999,77777,9,999999999,0,0,0,99,0.2,0,0
2023,6,5,15,60,9,29.8,24.4,73.0,101325,0,0,0,0,0,0,0,0,0,0,0,13.7,0,0,9999,77777,9,999999999,0,0,0,99,0.2,0,0
2023,6,5,16,60,9,29.7,24.4,73.0,101325,0,0,0,0,0,0,0,0,0,0,0,11.2,0,0,9999,77777,9,999999999,0,0,0,99,0.2,0,0
2023,6,5,17,60,9,29.6,24.5,74.0,101325,0,0,0,0,0,0,0,0,0,0,0,10.2,0,0,9999,77777,9,999999999,0,0,0,99,0.2,0,0
2023,6,5,18,60,9,29.7,24.4,73.0,101325,0,0,0,0,0,0,0,0,0,0,0,10.4,0,0,9999,77777,9,999999999,0,0,0,99,0.2,0,0
2023,6,5,19,60,9,29.6,24.4,74.0,101325,0,0,0,0,0,0,0,0,0,0,0,10.0,0,0,9999,77777,9,999999999,0,0,0,99,0.2,0,0
2023,6,5,20,60,9,29.4,24.3,74.0,101325,0,0,0,0,0,0,0,0,0,0,0,11.5,0,0,9999,77777,9,999999999,0,0,0,99,0.2,0,0
2023,6,5,21,60,9,29.2,24.5,76.0,101325,0,0,0,0,0,0,0,0,0,0,0,10.7,0,0,9999,77777,9,999999999,0,0,0,99,0.2,0,0
2023,6,5,22,60,9,29.0,24.6,77.0,101325,0,0,0,0,0,0,0,0,0,0,0,10.2,0,0,9999,77777,9,999999999,0,0,0,99,0.2,0,0
2023,6,5,23,60,9,28.9,24.7,78.0,101325,0,0,0,0,0,0,0,0,0,0,0,9.1,0,0,9999,77777,9,999999999,0,0,0,99,0.2,0,0
2023,6,5,24,60,9,28.8,24.7,79.0,101325,0,0,0,0,0,0,0,0,0,0,0,8.5,0,0,9999,77777,9,999999999,0,0,0,99,0.2,0,0
2023,6,6,1,60,9,28.9,24.8,79.0,101325,0,0,0,0,0,0,0,0,0,0,0,5.9,0,0,9999,77777,9,999999999,0,0,0,99,0.2,0,0
2023,6,6,2,60,9,29.5,24.6,75.0,101325,0,0,0,0,0,0,0,0,0,0,0,7.1,0,0,9999,77777,9,999999999,0,0,0,99,0.2,0,0
2023,6,6,3,60,9,30.6,23.8,67.0,101325,0,0,0,0,0,0,0,0,0,0,0,8.7,0,0,9999,77777,9,999999999,0,0,0,99,0.2,0,0
2023,6,6,4,60,9,31.5,23.6,63.0,101325,0,0,0,0,0,0,0,0,0,0,0,10.1,0,0,9999,77777,9,999999999,0,0,0,99,0.2,0,0
2023,6,6,5,60,9,32.4,23.3,59.0,101325,0,0,0,0,0,0,0,0,0,0,0,10.9,0,0,9999,77777,9,999999999,0,0,0,99,0.2,0,0
2023,6,6,6,60,9,33.2,23.1,56.0,101325,0,0,0,0,0,0,0,0,0,0,0,13.1,0,0,9999,77777,9,999999999,0,0,0,99,0.2,0,0
2023,6,6,7,60,9,33.6,23.0,54.0,101325,0,0,0,0,0,0,0,0,0,0,0,13.8,0,0,9999,77777,9,999999999,0,0,0,99,0.2,0,0
2023,6,6,8,60,9,33.8,23.1,54.0,101325,0,0,0,0,0,0,0,0,0,0,0,15.2,0,0,9999,77777,9,999999999,0,0,0,99,0.2,0,0
2023,6,6,9,60,9,33.3,23.6,57.0,101325,0,0,0,0,0,0,0,0,0,0,0,16.9,0,0,9999,77777,9,999999999,0,0,0,99,0.2,0,0
2023,6,6,10,60,9,33.1,23.6,58.0,101325,0,0,0,0,0,0,0,0,0,0,0,16.6,0,0,9999,77777,9,999999999,0,0,0,99,0.2,0,0
2023,6,6,11,60,9,32.7,23.9,60.0,101325,0,0,0,0,0,0,0,0,0,0,0,17.1,0,0,9999,77777,9,999999999,0,0,0,99,0.2,0,0
2023,6,6,12,60,9,32.0,24.0,63.0,101325,0,0,0,0,0,0,0,0,0,0,0,16.9,0,0,9999,77777,9,999999999,0,0,0,99,0.2,0,0
2023,6,6,13,60,9,31.3,24.2,66.0,101325,0,0,0,0,0,0,0,0,0,0,0,13.6,0,0,9999,77777,9,999999999,0,0,0,99,0.2,0,0
2023,6,6,14,60,9,30.5,24.4,70.0,101325,0,0,0,0,0,0,0,0,0,0,0,14.0,0,0,9999,77777,9,999999999,0,0,0,99,0.2,0,0
2023,6,6,15,60,9,29.8,24.6,74.0,101325,0,0,0,0,0,0,0,0,0,0,0,11.9,0,0,9999,77777,9,999999999,0,0,0,99,0.2,0,0
2023,6,6,16,60,9,29.6,24.8,75.0,101325,0,0,0,0,0,0,0,0,0,0,0,9.7,0,0,9999,77777,9,999999999,0,0,0,99,0.2,0,0
2023,6,6,17,60,9,29.4,25.1,78.0,101325,0,0,0,0,0,0,0,0,0,0,0,9.8,0,0,9999,77777,9,999999999,0,0,0,99,0.2,0,0
2023,6,6,18,60,9,29.3,25.3,79.0,101325,0,0,0,0,0,0,0,0,0,0,0,9.3,0,0,9999,77777,9,999999999,0,0,0,99,0.2,0,0
2023,6,6,19,60,9,29.2,25.0,78.0,101325,0,0,0,0,0,0,0,0,0,0,0,9.2,0,0,9999,77777,9,999999999,0,0,0,99,0.2,0,0
2023,6,6,20,60,9,28.9,24.9,79.0,101325,0,0,0,0,0,0,0,0,0,0,0,7.9,0,0,9999,77777,9,999999999,0,0,0,99,0.2,0,0
2023,6,6,21,60,9,28.7,25.0,80.0,101325,0,0,0,0,0,0,0,0,0,0,0,6.4,0,0,9999,77777,9,999999999,0,0,0,99,0.2,0,0
2023,6,6,22,60,9,28.8,25.1,80.0,101325,0,0,0,0,0,0,0,0,0,0,0,7.5,0,0,9999,77777,9,999999999,0,0,0,99,0.2,0,0
2023,6,6,23,60,9,28.8,25.0,80.0,101325,0,0,0,0,0,0,0,0,0,0,0,9.1,0,0,9999,77777,9,999999999,0,0,0,99,0.2,0,0
2023,6,6,24,60,9,28.7,24.9,80.0,101325,0,0,0,0,0,0,0,0,0,0,0,8.7,0,0,9999,77777,9,999999999,0,0,0,99,0.2,0,0
2023,6,7,1,60,9,29.2,24.9,78.0,101325,0,0,0,0,0,0,0,0,0,0,0,8.4,0,0,9999,77777,9,999999999,0,0,0,99,0.2,0,0
2023,6,7,2,60,9,29.6,24.9,76.0,101325,0,0,0,0,0,0,0,0,0,0,0,8.5,0,0,9999,77777,9,999999999,0,0,0,99,0.2,0,0
2023,6,7,3,60,9,30.7,24.2,69.0,101325,0,0,0,0,0,0,0,0,0,0,0,10.8,0,0,9999,77777,9,999999999,0,0,0,99,0.2,0,0
2023,6,7,4,60,9,31.5,24.1,65.0,101325,0,0,0,0,0,0,0,0,0,0,0,10.0,0,0,9999,77777,9,999999999,0,0,0,99,0.2,0,0
2023,6,7,5,60,9,32.3,23.9,61.0,101325,0,0,0,0,0,0,0,0,0,0,0,9.7,0,0,9999,77777,9,999999999,0,0,0,99,0.2,0,0
2023,6,7,6,60,9,33.0,23.8,59.0,101325,0,0,0,0,0,0,0,0,0,0,0,13.1,0,0,9999,77777,9,999999999,0,0,0,99,0.2,0,0
2023,6,7,7,60,9,33.4,23.8,57.0,101325,0,0,0,0,0,0,0,0,0,0,0,13.7,0,0,9999,77777,9,999999999,0,0,0,99,0.2,0,0
2023,6,7,8,60,9,33.5,23.9,57.0,101325,0,0,0,0,0,0,0,0,0,0,0,14.4,0,0,9999,77777,9,999999999,0,0,0,99,0.2,0,0
2023,6,7,9,60,9,33.5,24.1,58.0,101325,0,0,0,0,0,0,0,0,0,0,0,15.1,0,0,9999,77777,9,999999999,0,0,0,99,0.2,0,0
2023,6,7,10,60,9,33.3,24.2,59.0,101325,0,0,0,0,0,0,0,0,0,0,0,15.7,0,0,9999,77777,9,999999999,0,0,0,99,0.2,0,0
2023,6,7,11,60,9,32.8,24.0,60.0,101325,0,0,0,0,0,0,0,0,0,0,0,16.5,0,0,9999,77777,9,999999999,0,0,0,99,0.2,0,0
2023,6,7,12,60,9,32.3,24.2,62.0,101325,0,0,0,0,0,0,0,0,0,0,0,14.8,0,0,9999,77777,9,999999999,0,0,0,99,0.2,0,0
2023,6,7,13,60,9,31.8,24.2,64.0,101325,0,0,0,0,0,0,0,0,0,0,0,12.7,0,0,9999,77777,9,999999999,0,0,0,99,0.2,0,0
2023,6,7,14,60,9,31.1,24.3,67.0,101325,0,0,0,0,0,0,0,0,0,0,0,12.3,0,0,9999,77777,9,999999999,0,0,0,99,0.2,0,0
2023,6,7,15,60,9,30.4,24.5,71.0,101325,0,0,0,0,0,0,0,0,0,0,0,12.5,0,0,9999,77777,9,999999999,0,0,0,99,0.2,0,0
2023,6,7,16,60,9,30.2,24.5,71.0,101325,0,0,0,0,0,0,0,0,0,0,0,13.8,0,0,9999,77777,9,999999999,0,0,0,99,0.2,0,0
2023,6,7,17,60,9,30.0,24.8,74.0,101325,0,0,0,0,0,0,0,0,0,0,0,13.5,0,0,9999,77777,9,999999999,0,0,0,99,0.2,0,0
2023,6,7,18,60,9,29.9,25.0,75.0,101325,0,0,0,0,0,0,0,0,0,0,0,16.2,0,0,9999,77777,9,999999999,0,0,0,99,0.2,0,0
2023,6,7,19,60,9,29.8,24.9,75.0,101325,0,0,0,0,0,0,0,0,0,0,0,16.9,0,0,9999,77777,9,999999999,0,0,0,99,0.2,0,0
2023,6,7,20,60,9,29.6,24.9,76.0,101325,0,0,0,0,0,0,0,0,0,0,0,16.6,0,0,9999,77777,9,999999999,0,0,0,99,0.2,0,0
2023,6,7,21,60,9,29.5,24.7,75.0,101325,0,0,0,0,0,0,0,0,0,0,0,15.0,0,0,9999,77777,9,999999999,0,0,0,99,0.2,0,0
2023,6,7,22,60,9,29.5,24.8,76.0,101325,0,0,0,0,0,0,0,0,0,0,0,14.0,0,0,9999,77777,9,999999999,0,0,0,99,0.2,0,0
2023,6,7,23,60,9,29.6,24.7,75.0,101325,0,0,0,0,0,0,0,0,0,0,0,11.7,0,0,9999,77777,9,999999999,0,0,0,99,0.2,0,0
2023,6,7,24,60,9,29.4,24.7,76.0,101325,0,0,0,0,0,0,0,0,0,0,0,7.8,0,0,9999,77777,9,999999999,0,0,0,99,0.2,0,0
2023,6,8,1,60,9,29.6,24.3,73.0,101325,0,0,0,0,0,0,0,0,0,0,0,6.7,0,0,9999,77777,9,999999999,0,0,0,99,0.2,0,0
2023,6,8,2,60,9,29.9,24.6,73.0,101325,0,0,0,0,0,0,0,0,0,0,0,7.1,0,0,9999,77777,9,999999999,0,0,0,99,0.2,0,0
2023,6,8,3,60,9,30.3,24.7,72.0,101325,0,0,0,0,0,0,0,0,0,0,0,8.5,0,0,9999,77777,9,999999999,0,0,0,99,0.2,0,0
2023,6,8,4,60,9,31.1,24.5,68.0,101325,0,0,0,0,0,0,0,0,0,0,0,8.8,0,0,9999,77777,9,999999999,0,0,0,99,0.2,0,0
2023,6,8,5,60,9,32.3,24.0,62.0,101325,0,0,0,0,0,0,0,0,0,0,0,10.1,0,0,9999,77777,9,999999999,0,0,0,99,0.2,0,0
2023,6,8,6,60,9,33.4,23.6,57.0,101325,0,0,0,0,0,0,0,0,0,0,0,10.8,0,0,9999,77777,9,999999999,0,0,0,99,0.2,0,0
2023,6,8,7,60,9,33.8,23.4,55.0,101325,0,0,0,0,0,0,0,0,0,0,0,12.2,0,0,9999,77777,9,999999999,0,0,0,99,0.2,0,0
2023,6,8,8,60,9,34.0,23.5,54.0,101325,0,0,0,0,0,0,0,0,0,0,0,13.0,0,0,9999,77777,9,999999999,0,0,0,99,0.2,0,0
2023,6,8,9,60,9,34.1,23.8,55.0,101325,0,0,0,0,0,0,0,0,0,0,0,14.1,0,0,9999,77777,9,999999999,0,0,0,99,0.2,0,0
2023,6,8,10,60,9,33.7,24.1,57.0,101325,0,0,0,0,0,0,0,0,0,0,0,15.8,0,0,9999,77777,9,999999999,0,0,0,99,0.2,0,0
2023,6,8,11,60,9,33.6,24.0,57.0,101325,0,0,0,0,0,0,0,0,0,0,0,16.9,0,0,9999,77777,9,999999999,0,0,0,99,0.2,0,0
2023,6,8,12,60,9,32.9,23.8,59.0,101325,0,0,0,0,0,0,0,0,0,0,0,16.9,0,0,9999,77777,9,999999999,0,0,0,99,0.2,0,0
2023,6,8,13,60,9,32.2,24.3,63.0,101325,0,0,0,0,0,0,0,0,0,0,0,16.4,0,0,9999,77777,9,999999999,0,0,0,99,0.2,0,0
2023,6,8,14,60,9,31.0,25.0,71.0,101325,0,0,0,0,0,0,0,0,0,0,0,14.0,0,0,9999,77777,9,999999999,0,0,0,99,0.2,0,0
2023,6,8,15,60,9,30.7,25.1,72.0,101325,0,0,0,0,0,0,0,0,0,0,0,12.8,0,0,9999,77777,9,999999999,0,0,0,99,0.2,0,0
2023,6,8,16,60,9,30.3,25.3,75.0,101325,0,0,0,0,0,0,0,0,0,0,0,12.5,0,0,9999,77777,9,999999999,0,0,0,99,0.2,0,0
2023,6,8,17,60,9,30.2,25.4,76.0,101325,0,0,0,0,0,0,0,0,0,0,0,13.9,0,0,9999,77777,9,999999999,0,0,0,99,0.2,0,0
2023,6,8,18,60,9,29.8,25.8,79.0,101325,0,0,0,0,0,0,0,0,0,0,0,14.8,0,0,9999,77777,9,999999999,0,0,0,99,0.2,0,0
2023,6,8,19,60,9,29.6,25.9,81.0,101325,0,0,0,0,0,0,0,0,0,0,0,11.8,0,0,9999,77777,9,999999999,0,0,0,99,0.2,0,0
2023,6,8,20,60,9,29.6,25.9,81.0,101325,0,0,0,0,0,0,0,0,0,0,0,11.5,0,0,9999,77777,9,999999999,0,0,0,99,0.2,0,0
2023,6,8,21,60,9,29.4,25.9,81.0,101325,0,0,0,0,0,0,0,0,0,0,0,12.1,0,0,9999,77777,9,999999999,0,0,0,99,0.2,0,0
2023,6,8,22,60,9,29.1,25.9,83.0,101325,0,0,0,0,0,0,0,0,0,0,0,12.2,0,0,9999,77777,9,999999999,0,0,0,99,0.2,0,0
2023,6,8,23,60,9,28.7,26.1,86.0,101325,0,0,0,0,0,0,0,0,0,0,0,11.5,0,0,9999,77777,9,999999999,0,0,0,99,0.2,0,0
2023,6,8,24,60,9,28.3,26.2,89.0,101325,0,0,0,0,0,0,0,0,0,0,0,10.5,0,0,9999,77777,9,999999999,0,0,0,99,0.2,0,0
2023,6,9,1,60,9,28.2,26.4,90.0,101325,0,0,0,0,0,0,0,0,0,0,0,10.5,0,0,9999,77777,9,999999999,0,0,0,99,0.2,0,0
2023,6,9,2,60,9,28.5,26.0,86.0,101325,0,0,0,0,0,0,0,0,0,0,0,16.9,0,0,9999,77777,9,999999999,0,0,0,99,0.2,0,0
2023,6,9,3,60,9,28.8,26.2,86.0,101325,0,0,0,0,0,0,0,0,0,0,0,16.3,0,0,9999,77777,9,999999999,0,0,0,99,0.2,0,0
2023,6,9,4,60,9,29.9,26.2,81.0,101325,0,0,0,0,0,0,0,0,0,0,0,15.7,0,0,9999,77777,9,999999999,0,0,0,99,0.2,0,0
2023,6,9,5,60,9,31.4,25.7,72.0,101325,0,0,0,0,0,0,0,0,0,0,0,15.5,0,0,9999,77777,9,999999999,0,0,0,99,0.2,0,0
2023,6,9,6,60,9,32.5,25.3,66.0,101325,0,0,0,0,0,0,0,0,0,0,0,15.7,0,0,9999,77777,9,999999999,0,0,0,99,0.2,0,0
2023,6,9,7,60,9,32.9,25.4,65.0,101325,0,0,0,0,0,0,0,0,0,0,0,16.4,0,0,9999,77777,9,999999999,0,0,0,99,0.2,0,0
2023,6,9,8,60,9,32.9,25.4,65.0,101325,0,0,0,0,0,0,0,0,0,0,0,21.4,0,0,9999,77777,9,999999999,0,0,0,99,0.2,0,0
2023,6,9,9,60,9,33.1,25.0,63.0,101325,0,0,0,0,0,0,0,0,0,0,0,22.7,0,0,9999,77777,9,999999999,0,0,0,99,0.2,0,0
2023,6,9,10,60,9,33.0,25.9,67.0,101325,0,0,0,0,0,0,0,0,0,0,0,22.9,0,0,9999,77777,9,999999999,0,0,0,99,0.2,0,0
2023,6,9,11,60,9,32.3,26.1,70.0,101325,0,0,0,0,0,0,0,0,0,0,0,23.0,0,0,9999,77777,9,999999999,0,0,0,99,0.2,0,0
2023,6,9,12,60,9,31.7,25.9,71.0,101325,0,0,0,0,0,0,0,0,0,0,0,24.0,0,0,9999,77777,9,999999999,0,0,0,99,0.2,0,0
2023,6,9,13,60,9,31.4,25.6,72.0,101325,0,0,0,0,0,0,0,0,0,0,0,29.3,0,0,9999,77777,9,999999999,0,0,0,99,0.2,0,0
2023,6,9,14,60,9,31.3,25.2,70.0,101325,0,0,0,0,0,0,0,0,0,0,0,22.8,0,0,9999,77777,9,999999999,0,0,0,99,0.2,0,0
2023,6,9,15,60,9,30.7,25.5,74.0,101325,0,0,0,0,0,0,0,0,0,0,0,19.5,0,0,9999,77777,9,999999999,0,0,0,99,0.2,0,0
2023,6,9,16,60,9,30.7,25.6,75.0,101325,0,0,0,0,0,0,0,0,0,0,0,18.6,0,0,9999,77777,9,999999999,0,0,0,99,0.2,0,0
2023,6,9,17,60,9,30.5,25.5,75.0,101325,0,0,0,0,0,0,0,0,0,0,0,22.5,0,0,9999,77777,9,999999999,0,0,0,99,0.2,0,0
2023,6,9,18,60,9,30.1,25.5,77.0,101325,0,0,0,0,0,0,0,0,0,0,0,23.7,0,0,9999,77777,9,999999999,0,0,0,99,0.2,0,0
2023,6,9,19,60,9,29.4,25.7,81.0,101325,0,0,0,0,0,0,0,0,0,0,0,23.8,0,0,9999,77777,9,999999999,0,0,0,99,0.2,0,0
2023,6,9,20,60,9,29.0,25.8,83.0,101325,0,0,0,0,0,0,0,0,0,0,0,24.2,0,0,9999,77777,9,999999999,0,0,0,99,0.2,0,0
2023,6,9,21,60,9,29.2,25.7,82.0,101325,0,0,0,0,0,0,0,0,0,0,0,21.6,0,0,9999,77777,9,999999999,0,0,0,99,0.2,0,0
2023,6,9,22,60,9,28.9,25.7,83.0,101325,0,0,0,0,0,0,0,0,0,0,0,19.7,0,0,9999,77777,9,999999999,0,0,0,99,0.2,0,0
2023,6,9,23,60,9,28.8,25.6,83.0,101325,0,0,0,0,0,0,0,0,0,0,0,19.5,0,0,9999,77777,9,999999999,0,0,0,99,0.2,0,0
2023,6,9,24,60,9,28.6,25.3,83.0,101325,0,0,0,0,0,0,0,0,0,0,0,18.4,0,0,9999,77777,9,999999999,0,0,0,99,0.2,0,0
2023,6,10,1,60,9,29.0,25.0,79.0,101325,0,0,0,0,0,0,0,0,0,0,0,18.2,0,0,9999,77777,9,999999999,0,0,0,99,0.2,0,0
2023,6,10,2,60,9,27.7,24.7,84.0,101325,0,0,0,0,0,0,0,0,0,0,0,23.3,0,0,9999,77777,9,999999999,0,0,0,99,0.2,0,0
2023,6,10,3,60,9,28.8,25.3,81.0,101325,0,0,0,0,0,0,0,0,0,0,0,21.1,0,0,9999,77777,9,999999999,0,0,0,99,0.2,0,0
2023,6,10,4,60,9,30.4,24.6,71.0,101325,0,0,0,0,0,0,0,0,0,0,0,19.1,0,0,9999,77777,9,999999999,0,0,0,99,0.2,0,0
2023,6,10,5,60,9,32.1,24.3,63.0,101325,0,0,0,0,0,0,0,0,0,0,0,24.5,0,0,9999,77777,9,999999999,0,0,0,99,0.2,0,0
2023,6,10,6,60,9,32.9,24.6,62.0,101325,0,0,0,0,0,0,0,0,0,0,0,26.0,0,0,9999,77777,9,999999999,0,0,0,99,0.2,0,0
2023,6,10,7,60,9,33.2,25.2,63.0,101325,0,0,0,0,0,0,0,0,0,0,0,28.9,0,0,9999,77777,9,999999999,0,0,0,99,0.2,0,0
2023,6,10,8,60,9,32.6,24.8,64.0,101325,0,0,0,0,0,0,0,0,0,0,0,31.1,0,0,9999,77777,9,999999999,0,0,0,99,0.2,0,0
2023,6,10,9,60,9,32.2,25.8,69.0,101325,0,0,0,0,0,0,0,0,0,0,0,26.6,0,0,9999,77777,9,999999999,0,0,0,99,0.2,0,0
2023,6,10,10,60,9,32.4,25.4,67.0,101325,0,0,0,0,0,0,0,0,0,0,0,26.4,0,0,9999,77777,9,999999999,0,0,0,99,0.2,0,0
2023,6,10,11,60,9,32.3,25.6,68.0,101325,0,0,0,0,0,0,0,0,0,0,0,29.7,0,0,9999,77777,9,999999999,0,0,0,99,0.2,0,0
2023,6,10,12,60,9,30.2,25.5,76.0,101325,0,0,0,0,0,0,0,0,0,0,0,32.5,0,0,9999,77777,9,999999999,0,0,0,99,0.2,0,0
2023,6,10,13,60,9,31.9,24.3,64.0,101325,0,0,0,0,0,0,0,0,0,0,0,24.0,0,0,9999,77777,9,999999999,0,0,0,99,0.2,0,0
2023,6,10,14,60,9,29.8,24.5,73.0,101325,0,0,0,0,0,0,0,0,0,0,0,29.5,0,0,9999,77777,9,999999999,0,0,0,99,0.2,0,0
2023,6,10,15,60,9,29.3,25.4,80.0,101325,0,0,0,0,0,0,0,0,0,0,0,26.7,0,0,9999,77777,9,999999999,0,0,0,99,0.2,0,0
2023,6,10,16,60,9,29.3,25.1,78.0,101325,0,0,0,0,0,0,0,0,0,0,0,24.3,0,0,9999,77777,9,999999999,0,0,0,99,0.2,0,0
2023,6,10,17,60,9,29.5,24.9,77.0,101325,0,0,0,0,0,0,0,0,0,0,0,22.2,0,0,9999,77777,9,999999999,0,0,0,99,0.2,0,0
2023,6,10,18,60,9,29.4,24.9,77.0,101325,0,0,0,0,0,0,0,0,0,0,0,23.0,0,0,9999,77777,9,999999999,0,0,0,99,0.2,0,0
2023,6,10,19,60,9,29.2,25.1,79.0,101325,0,0,0,0,0,0,0,0,0,0,0,22.0,0,0,9999,77777,9,999999999,0,0,0,99,0.2,0,0
2023,6,10,20,60,9,29.1,24.7,77.0,101325,0,0,0,0,0,0,0,0,0,0,0,20.9,0,0,9999,77777,9,999999999,0,0,0,99,0.2,0,0
2023,6,10,21,60,9,29.0,24.4,76.0,101325,0,0,0,0,0,0,0,0,0,0,0,23.4,0,0,9999,77777,9,999999999,0,0,0,99,0.2,0,0
2023,6,10,22,60,9,28.6,24.1,77.0,101325,0,0,0,0,0,0,0,0,0,0,0,22.5,0,0,9999,77777,9,999999999,0,0,0,99,0.2,0,0
2023,6,10,23,60,9,27.9,24.1,80.0,101325,0,0,0,0,0,0,0,0,0,0,0,22.0,0,0,9999,77777,9,999999999,0,0,0,99,0.2,0,0
2023,6,10,24,60,9,27.5,24.4,83.0,101325,0,0,0,0,0,0,0,0,0,0,0,25.6,0,0,9999,77777,9,999999999,0,0,0,99,0.2,0,0
2023,6,11,1,60,9,27.5,24.4,83.0,101325,0,0,0,0,0,0,0,0,0,0,0,22.1,0,0,9999,77777,9,999999999,0,0,0,99,0.2,0,0
2023,6,11,2,60,9,27.6,23.7,79.0,101325,0,0,0,0,0,0,0,0,0,0,0,23.2,0,0,9999,77777,9,999999999,0,0,0,99,0.2,0,0
2023,6,11,3,60,9,28.0,23.2,75.0,101325,0,0,0,0,0,0,0,0,0,0,0,19.9,0,0,9999,77777,9,999999999,0,0,0,99,0.2,0,0
2023,6,11,4,60,9,29.7,23.0,67.0,101325,0,0,0,0,0,0,0,0,0,0,0,20.3,0,0,9999,77777,9,999999999,0,0,0,99,0.2,0,0
2023,6,11,5,60,9,31.4,23.2,62.0,101325,0,0,0,0,0,0,0,0,0,0,0,20.7,0,0,9999,77777,9,999999999,0,0,0,99,0.2,0,0
2023,6,11,6,60,9,32.7,23.4,58.0,101325,0,0,0,0,0,0,0,0,0,0,0,27.4,0,0,9999,77777,9,999999999,0,0,0,99,0.2,0,0
2023,6,11,7,60,9,31.8,24.6,66.0,101325,0,0,0,0,0,0,0,0,0,0,0,29.8,0,0,9999,77777,9,999999999,0,0,0,99,0.2,0,0
2023,6,11,8,60,9,32.4,24.4,63.0,101325,0,0,0,0,0,0,0,0,0,0,0,32.4,0,0,9999,77777,9,999999999,0,0,0,99,0.2,0,0
2023,6,11,9,60,9,32.5,24.6,63.0,101325,0,0,0,0,0,0,0,0,0,0,0,31.2,0,0,9999,77777,9,999999999,0,0,0,99,0.2,0,0
2023,6,11,10,60,9,28.9,24.2,76.0,101325,0,0,0,0,0,0,0,0,0,0,0,29.8,0,0,9999,77777,9,999999999,0,0,0,99,0.2,0,0
2023,6,11,11,60,9,30.8,24.2,68.0,101325,0,0,0,0,0,0,0,0,0,0,0,28.1,0,0,9999,77777,9,999999999,0,0,0,99,0.2,0,0
2023,6,11,12,60,9,31.8,24.0,64.0,101325,0,0,0,0,0,0,0,0,0,0,0,26.6,0,0,9999,77777,9,999999999,0,0,0,99,0.2,0,0
2023,6,11,13,60,9,30.3,24.4,71.0,101325,0,0,0,0,0,0,0,0,0,0,0,29.3,0,0,9999,77777,9,999999999,0,0,0,99,0.2,0,0
2023,6,11,14,60,9,29.8,25.3,77.0,101325,0,0,0,0,0,0,0,0,0,0,0,24.9,0,0,9999,77777,9,999999999,0,0,0,99,0.2,0,0
2023,6,11,15,60,9,29.3,25.1,78.0,101325,0,0,0,0,0,0,0,0,0,0,0,27.4,0,0,9999,77777,9,999999999,0,0,0,99,0.2,0,0
2023,6,11,16,60,9,29.3,24.7,76.0,101325,0,0,0,0,0,0,0,0,0,0,0,24.8,0,0,9999,77777,9,999999999,0,0,0,99,0.2,0,0
2023,6,11,17,60,9,30.0,24.1,71.0,101325,0,0,0,0,0,0,0,0,0,0,0,21.9,0,0,9999,77777,9,999999999,0,0,0,99,0.2,0,0
2023,6,11,18,60,9,29.5,24.0,73.0,101325,0,0,0,0,0,0,0,0,0,0,0,24.1,0,0,9999,77777,9,999999999,0,0,0,99,0.2,0,0
2023,6,11,19,60,9,25.7,24.2,92.0,101325,0,0,0,0,0,0,0,0,0,0,0,28.9,0,0,9999,77777,9,999999999,0,0,0,99,0.2,0,0
2023,6,11,20,60,9,27.1,24.5,86.0,101325,0,0,0,0,0,0,0,0,0,0,0,26.9,0,0,9999,77777,9,999999999,0,0,0,99,0.2,0,0
2023,6,11,21,60,9,27.2,24.7,86.0,101325,0,0,0,0,0,0,0,0,0,0,0,23.9,0,0,9999,77777,9,999999999,0,0,0,99,0.2,0,0
2023,6,11,22,60,9,26.9,24.3,86.0,101325,0,0,0,0,0,0,0,0,0,0,0,26.7,0,0,9999,77777,9,999999999,0,0,0,99,0.2,0,0
2023,6,11,23,60,9,26.3,24.7,91.0,101325,0,0,0,0,0,0,0,0,0,0,0,23.5,0,0,9999,77777,9,999999999,0,0,0,99,0.2,0,0
2023,6,11,24,60,9,26.3,24.2,88.0,101325,0,0,0,0,0,0,0,0,0,0,0,27.2,0,0,9999,77777,9,999999999,0,0,0,99,0.2,0,0
2023,6,12,1,60,9,27.1,24.7,87.0,101325,0,0,0,0,0,0,0,0,0,0,0,25.2,0,0,9999,77777,9,999999999,0,0,0,99,0.2,0,0
2023,6,12,2,60,9,27.3,24.3,83.0,101325,0,0,0,0,0,0,0,0,0,0,0,22.7,0,0,9999,77777,9,999999999,0,0,0,99,0.2,0,0
2023,6,12,3,60,9,28.2,24.3,79.0,101325,0,0,0,0,0,0,0,0,0,0,0,23.5,0,0,9999,77777,9,999999999,0,0,0,99,0.2,0,0
2023,6,12,4,60,9,29.2,24.0,73.0,101325,0,0,0,0,0,0,0,0,0,0,0,29.7,0,0,9999,77777,9,999999999,0,0,0,99,0.2,0,0
2023,6,12,5,60,9,30.1,23.9,70.0,101325,0,0,0,0,0,0,0,0,0,0,0,26.8,0,0,9999,77777,9,999999999,0,0,0,99,0.2,0,0
2023,6,12,6,60,9,32.0,23.5,61.0,101325,0,0,0,0,0,0,0,0,0,0,0,31.9,0,0,9999,77777,9,999999999,0,0,0,99,0.2,0,0
2023,6,12,7,60,9,32.3,23.6,60.0,101325,0,0,0,0,0,0,0,0,0,0,0,32.8,0,0,9999,77777,9,999999999,0,0,0,99,0.2,0,0
2023,6,12,8,60,9,30.0,24.7,74.0,101325,0,0,0,0,0,0,0,0,0,0,0,42.6,0,0,9999,77777,9,999999999,0,0,0,99,0.2,0,0
2023,6,12,9,60,9,29.6,24.6,75.0,101325,0,0,0,0,0,0,0,0,0,0,0,38.0,0,0,9999,77777,9,999999999,0,0,0,99,0.2,0,0
2023,6,12,10,60,9,30.8,24.8,70.0,101325,0,0,0,0,0,0,0,0,0,0,0,35.0,0,0,9999,77777,9,999999999,0,0,0,99,0.2,0,0
2023,6,12,11,60,9,30.8,25.0,71.0,101325,0,0,0,0,0,0,0,0,0,0,0,37.0,0,0,9999,77777,9,999999999,0,0,0,99,0.2,0,0
2023,6,12,12,60,9,31.0,25.0,70.0,101325,0,0,0,0,0,0,0,0,0,0,0,36.9,0,0,9999,77777,9,999999999,0,0,0,99,0.2,0,0
2023,6,12,13,60,9,31.1,24.8,69.0,101325,0,0,0,0,0,0,0,0,0,0,0,32.2,0,0,9999,77777,9,999999999,0,0,0,99,0.2,0,0
2023,6,12,14,60,9,29.5,24.9,76.0,101325,0,0,0,0,0,0,0,0,0,0,0,28.2,0,0,9999,77777,9,999999999,0,0,0,99,0.2,0,0
2023,6,12,15,60,9,28.7,24.3,77.0,101325,0,0,0,0,0,0,0,0,0,0,0,35.4,0,0,9999,77777,9,999999999,0,0,0,99,0.2,0,0
2023,6,12,16,60,9,27.6,24.3,82.0,101325,0,0,0,0,0,0,0,0,0,0,0,30.7,0,0,9999,77777,9,999999999,0,0,0,99,0.2,0,0
2023,6,12,17,60,9,27.0,24.2,85.0,101325,0,0,0,0,0,0,0,0,0,0,0,29.9,0,0,9999,77777,9,999999999,0,0,0,99,0.2,0,0
2023,6,12,18,60,9,27.1,24.0,83.0,101325,0,0,0,0,0,0,0,0,0,0,0,28.5,0,0,9999,77777,9,999999999,0,0,0,99,0.2,0,0
2023,6,12,19,60,9,26.9,24.0,84.0,101325,0,0,0,0,0,0,0,0,0,0,0,25.0,0,0,9999,77777,9,999999999,0,0,0,99,0.2,0,0
2023,6,12,20,60,9,27.7,24.3,82.0,101325,0,0,0,0,0,0,0,0,0,0,0,27.3,0,0,9999,77777,9,999999999,0,0,0,99,0.2,0,0
2023,6,12,21,60,9,27.4,24.5,84.0,101325,0,0,0,0,0,0,0,0,0,0,0,27.8,0,0,9999,77777,9,999999999,0,0,0,99,0.2,0,0
2023,6,12,22,60,9,27.2,24.4,84.0,101325,0,0,0,0,0,0,0,0,0,0,0,27.3,0,0,9999,77777,9,999999999,0,0,0,99,0.2,0,0
2023,6,12,23,60,9,26.8,24.4,87.0,101325,0,0,0,0,0,0,0,0,0,0,0,28.5,0,0,9999,77777,9,999999999,0,0,0,99,0.2,0,0
2023,6,12,24,60,9,27.1,24.6,86.0,101325,0,0,0,0,0,0,0,0,0,0,0,25.2,0,0,9999,77777,9,999999999,0,0,0,99,0.2,0,0
2023,6,13,1,60,9,26.9,24.7,88.0,101325,0,0,0,0,0,0,0,0,0,0,0,27.1,0,0,9999,77777,9,999999999,0,0,0,99,0.2,0,0
2023,6,13,2,60,9,27.2,24.6,85.0,101325,0,0,0,0,0,0,0,0,0,0,0,25.7,0,0,9999,77777,9,999999999,0,0,0,99,0.2,0,0
2023,6,13,3,60,9,27.8,24.6,83.0,101325,0,0,0,0,0,0,0,0,0,0,0,23.3,0,0,9999,77777,9,999999999,0,0,0,99,0.2,0,0
2023,6,13,4,60,9,29.1,24.4,76.0,101325,0,0,0,0,0,0,0,0,0,0,0,30.5,0,0,9999,77777,9,999999999,0,0,0,99,0.2,0,0
2023,6,13,5,60,9,29.3,24.3,75.0,101325,0,0,0,0,0,0,0,0,0,0,0,33.5,0,0,9999,77777,9,999999999,0,0,0,99,0.2,0,0
2023,6,13,6,60,9,30.2,24.3,71.0,101325,0,0,0,0,0,0,0,0,0,0,0,35.0,0,0,9999,77777,9,999999999,0,0,0,99,0.2,0,0
2023,6,13,7,60,9,31.1,24.5,68.0,101325,0,0,0,0,0,0,0,0,0,0,0,34.2,0,0,9999,77777,9,999999999,0,0,0,99,0.2,0,0
2023,6,13,8,60,9,30.6,24.7,71.0,101325,0,0,0,0,0,0,0,0,0,0,0,34.5,0,0,9999,77777,9,999999999,0,0,0,99,0.2,0,0
2023,6,13,9,60,9,30.2,24.5,72.0,101325,0,0,0,0,0,0,0,0,0,0,0,36.3,0,0,9999,77777,9,999999999,0,0,0,99,0.2,0,0
2023,6,13,10,60,9,29.3,24.6,76.0,101325,0,0,0,0,0,0,0,0,0,0,0,35.3,0,0,9999,77777,9,999999999,0,0,0,99,0.2,0,0
2023,6,13,11,60,9,29.3,24.6,76.0,101325,0,0,0,0,0,0,0,0,0,0,0,31.1,0,0,9999,77777,9,999999999,0,0,0,99,0.2,0,0
2023,6,13,12,60,9,29.6,24.7,75.0,101325,0,0,0,0,0,0,0,0,0,0,0,29.5,0,0,9999,77777,9,999999999,0,0,0,99,0.2,0,0
2023,6,13,13,60,9,29.8,24.9,75.0,101325,0,0,0,0,0,0,0,0,0,0,0,29.5,0,0,9999,77777,9,999999999,0,0,0,99,0.2,0,0
2023,6,13,14,60,9,29.4,25.2,78.0,101325,0,0,0,0,0,0,0,0,0,0,0,28.5,0,0,9999,77777,9,999999999,0,0,0,99,0.2,0,0
2023,6,13,15,60,9,26.3,23.9,87.0,101325,0,0,0,0,0,0,0,0,0,0,0,27.9,0,0,9999,77777,9,999999999,0,0,0,99,0.2,0,0
2023,6,13,16,60,9,26.4,24.3,89.0,101325,0,0,0,0,0,0,0,0,0,0,0,25.2,0,0,9999,77777,9,999999999,0,0,0,99,0.2,0,0
2023,6,13,17,60,9,26.9,24.6,87.0,101325,0,0,0,0,0,0,0,0,0,0,0,27.0,0,0,9999,77777,9,999999999,0,0,0,99,0.2,0,0
2023,6,13,18,60,9,26.8,24.4,86.0,101325,0,0,0,0,0,0,0,0,0,0,0,25.9,0,0,9999,77777,9,999999999,0,0,0,99,0.2,0,0
2023,6,13,19,60,9,26.7,24.4,87.0,101325,0,0,0,0,0,0,0,0,0,0,0,23.2,0,0,9999,77777,9,999999999,0,0,0,99,0.2,0,0
2023,6,13,20,60,9,26.6,24.2,86.0,101325,0,0,0,0,0,0,0,0,0,0,0,22.6,0,0,9999,77777,9,999999999,0,0,0,99,0.2,0,0
2023,6,13,21,60,9,26.6,24.3,87.0,101325,0,0,0,0,0,0,0,0,0,0,0,21.3,0,0,9999,77777,9,999999999,0,0,0,99,0.2,0,0
2023,6,13,22,60,9,25.8,23.8,89.0,101325,0,0,0,0,0,0,0,0,0,0,0,28.1,0,0,9999,77777,9,999999999,0,0,0,99,0.2,0,0
2023,6,13,23,60,9,26.4,24.0,87.0,101325,0,0,0,0,0,0,0,0,0,0,0,24.1,0,0,9999,77777,9,999999999,0,0,0,99,0.2,0,0
2023,6,13,24,60,9,26.1,24.5,91.0,101325,0,0,0,0,0,0,0,0,0,0,0,22.2,0,0,9999,77777,9,999999999,0,0,0,99,0.2,0,0
2023,6,14,1,60,9,26.1,24.2,89.0,101325,0,0,0,0,0,0,0,0,0,0,0,22.7,0,0,9999,77777,9,999999999,0,0,0,99,0.2,0,0
2023,6,14,2,60,9,26.3,24.2,88.0,101325,0,0,0,0,0,0,0,0,0,0,0,21.7,0,0,9999,77777,9,999999999,0,0,0,99,0.2,0,0
2023,6,14,3,60,9,27.8,24.2,81.0,101325,0,0,0,0,0,0,0,0,0,0,0,23.7,0,0,9999,77777,9,999999999,0,0,0,99,0.2,0,0
2023,6,14,4,60,9,28.8,24.6,78.0,101325,0,0,0,0,0,0,0,0,0,0,0,24.6,0,0,9999,77777,9,999999999,0,0,0,99,0.2,0,0
2023,6,14,5,60,9,29.6,24.6,75.0,101325,0,0,0,0,0,0,0,0,0,0,0,30.3,0,0,9999,77777,9,999999999,0,0,0,99,0.2,0,0
2023,6,14,6,60,9,29.9,24.6,73.0,101325,0,0,0,0,0,0,0,0,0,0,0,31.8,0,0,9999,77777,9,999999999,0,0,0,99,0.2,0,0
2023,6,14,7,60,9,29.8,24.5,73.0,101325,0,0,0,0,0,0,0,0,0,0,0,32.8,0,0,9999,77777,9,999999999,0,0,0,99,0.2,0,0
2023,6,14,8,60,9,30.3,24.6,72.0,101325,0,0,0,0,0,0,0,0,0,0,0,33.7,0,0,9999,77777,9,999999999,0,0,0,99,0.2,0,0
2023,6,14,9,60,9,30.2,24.3,71.0,101325,0,0,0,0,0,0,0,0,0,0,0,33.8,0,0,9999,77777,9,999999999,0,0,0,99,0.2,0,0
2023,6,14,10,60,9,28.9,24.3,76.0,101325,0,0,0,0,0,0,0,0,0,0,0,29.9,0,0,9999,77777,9,999999999,0,0,0,99,0.2,0,0
2023,6,14,11,60,9,29.6,24.3,73.0,101325,0,0,0,0,0,0,0,0,0,0,0,28.9,0,0,9999,77777,9,999999999,0,0,0,99,0.2,0,0
2023,6,14,12,60,9,29.8,24.4,73.0,101325,0,0,0,0,0,0,0,0,0,0,0,29.5,0,0,9999,77777,9,999999999,0,0,0,99,0.2,0,0
2023,6,14,13,60,9,29.4,24.7,76.0,101325,0,0,0,0,0,0,0,0,0,0,0,25.5,0,0,9999,77777,9,999999999,0,0,0,99,0.2,0,0
2023,6,14,14,60,9,29.8,24.7,74.0,101325,0,0,0,0,0,0,0,0,0,0,0,27.2,0,0,9999,77777,9,999999999,0,0,0,99,0.2,0,0
2023,6,14,15,60,9,29.6,24.3,73.0,101325,0,0,0,0,0,0,0,0,0,0,0,27.4,0,0,9999,77777,9,999999999,0,0,0,99,0.2,0,0
2023,6,14,16,60,9,29.3,24.4,75.0,101325,0,0,0,0,0,0,0,0,0,0,0,26.7,0,0,9999,77777,9,999999999,0,0,0,99,0.2,0,0
2023,6,14,17,60,9,29.3,24.3,75.0,101325,0,0,0,0,0,0,0,0,0,0,0,27.5,0,0,9999,77777,9,999999999,0,0,0,99,0.2,0,0
2023,6,14,18,60,9,29.0,24.4,76.0,101325,0,0,0,0,0,0,0,0,0,0,0,26.3,0,0,9999,77777,9,999999999,0,0,0,99,0.2,0,0
2023,6,14,19,60,9,29.0,24.4,76.0,101325,0,0,0,0,0,0,0,0,0,0,0,24.8,0,0,9999,77777,9,999999999,0,0,0,99,0.2,0,0
2023,6,14,20,60,9,29.2,24.3,75.0,101325,0,0,0,0,0,0,0,0,0,0,0,24.9,0,0,9999,77777,9,999999999,0,0,0,99,0.2,0,0
2023,6,14,21,60,9,28.7,24.4,78.0,101325,0,0,0,0,0,0,0,0,0,0,0,26.3,0,0,9999,77777,9,999999999,0,0,0,99,0.2,0,0
2023,6,14,22,60,9,28.4,24.1,77.0,101325,0,0,0,0,0,0,0,0,0,0,0,26.0,0,0,9999,77777,9,999999999,0,0,0,99,0.2,0,0
2023,6,14,23,60,9,28.5,25.2,82.0,101325,0,0,0,0,0,0,0,0,0,0,0,25.3,0,0,9999,77777,9,999999999,0,0,0,99,0.2,0,0
2023,6,14,24,60,9,28.5,25.2,82.0,101325,0,0,0,0,0,0,0,0,0,0,0,26.6,0,0,9999,77777,9,999999999,0,0,0,99,0.2,0,0
2023,6,15,1,60,9,28.2,24.3,79.0,101325,0,0,0,0,0,0,0,0,0,0,0,25.0,0,0,9999,77777,9,999999999,0,0,0,99,0.2,0,0
2023,6,15,2,60,9,28.5,24.7,80.0,101325,0,0,0,0,0,0,0,0,0,0,0,25.5,0,0,9999,77777,9,999999999,0,0,0,99,0.2,0,0
2023,6,15,3,60,9,29.6,24.8,75.0,101325,0,0,0,0,0,0,0,0,0,0,0,28.3,0,0,9999,77777,9,999999999,0,0,0,99,0.2,0,0
2023,6,15,4,60,9,30.3,24.4,71.0,101325,0,0,0,0,0,0,0,0,0,0,0,31.7,0,0,9999,77777,9,999999999,0,0,0,99,0.2,0,0
2023,6,15,5,60,9,30.9,24.3,68.0,101325,0,0,0,0,0,0,0,0,0,0,0,31.4,0,0,9999,77777,9,999999999,0,0,0,99,0.2,0,0
2023,6,15,6,60,9,31.3,24.5,67.0,101325,0,0,0,0,0,0,0,0,0,0,0,32.0,0,0,9999,77777,9,999999999,0,0,0,99,0.2,0,0
2023,6,15,7,60,9,31.4,24.8,68.0,101325,0,0,0,0,0,0,0,0,0,0,0,32.0,0,0,9999,77777,9,999999999,0,0,0,99,0.2,0,0
2023,6,15,8,60,9,31.9,24.5,65.0,101325,0,0,0,0,0,0,0,0,0,0,0,31.6,0,0,9999,77777,9,999999999,0,0,0,99,0.2,0,0
2023,6,15,9,60,9,31.8,24.7,66.0,101325,0,0,0,0,0,0,0,0,0,0,0,32.5,0,0,9999,77777,9,999999999,0,0,0,99,0.2,0,0
2023,6,15,10,60,9,31.6,25.4,70.0,101325,0,0,0,0,0,0,0,0,0,0,0,33.2,0,0,9999,77777,9,999999999,0,0,0,99,0.2,0,0
2023,6,15,11,60,9,31.0,25.4,72.0,101325,0,0,0,0,0,0,0,0,0,0,0,33.7,0,0,9999,77777,9,999999999,0,0,0,99,0.2,0,0
2023,6,15,12,60,9,30.6,25.1,73.0,101325,0,0,0,0,0,0,0,0,0,0,0,32.1,0,0,9999,77777,9,999999999,0,0,0,99,0.2,0,0
2023,6,15,13,60,9,30.3,24.7,72.0,101325,0,0,0,0,0,0,0,0,0,0,0,30.9,0,0,9999,77777,9,999999999,0,0,0,99,0.2,0,0
2023,6,15,14,60,9,30.0,24.4,72.0,101325,0,0,0,0,0,0,0,0,0,0,0,31.1,0,0,9999,77777,9,999999999,0,0,0,99,0.2,0,0
2023,6,15,15,60,9,29.1,24.7,77.0,101325,0,0,0,0,0,0,0,0,0,0,0,30.0,0,0,9999,77777,9,999999999,0,0,0,99,0.2,0,0
2023,6,15,16,60,9,29.0,24.8,78.0,101325,0,0,0,0,0,0,0,0,0,0,0,29.6,0,0,9999,77777,9,999999999,0,0,0,99,0.2,0,0
2023,6,15,17,60,9,29.1,24.5,77.0,101325,0,0,0,0,0,0,0,0,0,0,0,29.3,0,0,9999,77777,9,999999999,0,0,0,99,0.2,0,0
2023,6,15,18,60,9,28.9,24.7,78.0,101325,0,0,0,0,0,0,0,0,0,0,0,29.9,0,0,9999,77777,9,999999999,0,0,0,99,0.2,0,0
2023,6,15,19,60,9,28.7,24.4,78.0,101325,0,0,0,0,0,0,0,0,0,0,0,29.6,0,0,9999,77777,9,999999999,0,0,0,99,0.2,0,0
2023,6,15,20,60,9,28.9,24.6,77.0,101325,0,0,0,0,0,0,0,0,0,0,0,31.2,0,0,9999,77777,9,999999999,0,0,0,99,0.2,0,0
2023,6,15,21,60,9,28.6,24.5,79.0,101325,0,0,0,0,0,0,0,0,0,0,0,30.7,0,0,9999,77777,9,999999999,0,0,0,99,0.2,0,0
2023,6,15,22,60,9,27.9,24.4,81.0,101325,0,0,0,0,0,0,0,0,0,0,0,30.6,0,0,9999,77777,9,999999999,0,0,0,99,0.2,0,0
2023,6,15,23,60,9,28.1,24.7,82.0,101325,0,0,0,0,0,0,0,0,0,0,0,29.4,0,0,9999,77777,9,999999999,0,0,0,99,0.2,0,0
2023,6,15,24,60,9,27.3,24.7,86.0,101325,0,0,0,0,0,0,0,0,0,0,0,27.7,0,0,9999,77777,9,999999999,0,0,0,99,0.2,0,0
2023,6,16,1,60,9,28.4,25.1,82.0,101325,0,0,0,0,0,0,0,0,0,0,0,29.9,0,0,9999,77777,9,999999999,0,0,0,99,0.2,0,0
2023,6,16,2,60,9,29.0,24.9,79.0,101325,0,0,0,0,0,0,0,0,0,0,0,31.9,0,0,9999,77777,9,999999999,0,0,0,99,0.2,0,0
2023,6,16,3,60,9,29.5,24.5,75.0,101325,0,0,0,0,0,0,0,0,0,0,0,33.7,0,0,9999,77777,9,999999999,0,0,0,99,0.2,0,0
2023,6,16,4,60,9,30.2,24.3,71.0,101325,0,0,0,0,0,0,0,0,0,0,0,34.8,0,0,9999,77777,9,999999999,0,0,0,99,0.2,0,0
2023,6,16,5,60,9,30.8,23.7,66.0,101325,0,0,0,0,0,0,0,0,0,0,0,36.1,0,0,9999,77777,9,999999999,0,0,0,99,0.2,0,0
2023,6,16,6,60,9,30.4,23.9,68.0,101325,0,0,0,0,0,0,0,0,0,0,0,35.7,0,0,9999,77777,9,999999999,0,0,0,99,0.2,0,0
2023,6,16,7,60,9,30.7,24.6,70.0,101325,0,0,0,0,0,0,0,0,0,0,0,32.6,0,0,9999,77777,9,999999999,0,0,0,99,0.2,0,0
2023,6,16,8,60,9,31.0,24.4,68.0,101325,0,0,0,0,0,0,0,0,0,0,0,37.5,0,0,9999,77777,9,999999999,0,0,0,99,0.2,0,0
2023,6,16,9,60,9,31.3,24.5,67.0,101325,0,0,0,0,0,0,0,0,0,0,0,35.4,0,0,9999,77777,9,999999999,0,0,0,99,0.2,0,0
2023,6,16,10,60,9,31.2,24.7,68.0,101325,0,0,0,0,0,0,0,0,0,0,0,33.6,0,0,9999,77777,9,999999999,0,0,0,99,0.2,0,0
2023,6,16,11,60,9,30.2,24.7,72.0,101325,0,0,0,0,0,0,0,0,0,0,0,31.1,0,0,9999,77777,9,999999999,0,0,0,99,0.2,0,0
2023,6,16,12,60,9,29.9,24.6,73.0,101325,0,0,0,0,0,0,0,0,0,0,0,27.0,0,0,9999,77777,9,999999999,0,0,0,99,0.2,0,0
2023,6,16,13,60,9,30.1,24.6,73.0,101325,0,0,0,0,0,0,0,0,0,0,0,29.1,0,0,9999,77777,9,999999999,0,0,0,99,0.2,0,0
2023,6,16,14,60,9,29.7,24.4,73.0,101325,0,0,0,0,0,0,0,0,0,0,0,27.8,0,0,9999,77777,9,999999999,0,0,0,99,0.2,0,0
2023,6,16,15,60,9,28.8,24.9,79.0,101325,0,0,0,0,0,0,0,0,0,0,0,23.7,0,0,9999,77777,9,999999999,0,0,0,99,0.2,0,0
2023,6,16,16,60,9,28.9,24.9,79.0,101325,0,0,0,0,0,0,0,0,0,0,0,23.4,0,0,9999,77777,9,999999999,0,0,0,99,0.2,0,0
2023,6,16,17,60,9,29.0,24.8,78.0,101325,0,0,0,0,0,0,0,0,0,0,0,24.8,0,0,9999,77777,9,999999999,0,0,0,99,0.2,0,0
2023,6,16,18,60,9,29.0,24.8,78.0,101325,0,0,0,0,0,0,0,0,0,0,0,23.7,0,0,9999,77777,9,999999999,0,0,0,99,0.2,0,0
2023,6,16,19,60,9,28.2,24.7,81.0,101325,0,0,0,0,0,0,0,0,0,0,0,24.2,0,0,9999,77777,9,999999999,0,0,0,99,0.2,0,0
2023,6,16,20,60,9,28.3,25.0,83.0,101325,0,0,0,0,0,0,0,0,0,0,0,22.1,0,0,9999,77777,9,999999999,0,0,0,99,0.2,0,0
2023,6,16,21,60,9,27.2,24.4,85.0,101325,0,0,0,0,0,0,0,0,0,0,0,21.6,0,0,9999,77777,9,999999999,0,0,0,99,0.2,0,0
2023,6,16,22,60,9,27.3,24.8,86.0,101325,0,0,0,0,0,0,0,0,0,0,0,18.9,0,0,9999,77777,9,999999999,0,0,0,99,0.2,0,0
2023,6,16,23,60,9,27.6,25.7,89.0,101325,0,0,0,0,0,0,0,0,0,0,0,20.0,0,0,9999,77777,9,999999999,0,0,0,99,0.2,0,0
2023,6,16,24,60,9,27.9,25.1,85.0,101325,0,0,0,0,0,0,0,0,0,0,0,22.2,0,0,9999,77777,9,999999999,0,0,0,99,0.2,0,0
2023,6,17,1,60,9,28.3,24.7,81.0,101325,0,0,0,0,0,0,0,0,0,0,0,19.4,0,0,9999,77777,9,999999999,0,0,0,99,0.2,0,0
2023,6,17,2,60,9,28.3,24.5,80.0,101325,0,0,0,0,0,0,0,0,0,0,0,19.9,0,0,9999,77777,9,999999999,0,0,0,99,0.2,0,0
2023,6,17,3,60,9,28.7,25.3,82.0,101325,0,0,0,0,0,0,0,0,0,0,0,20.0,0,0,9999,77777,9,999999999,0,0,0,99,0.2,0,0
2023,6,17,4,60,9,29.0,25.4,81.0,101325,0,0,0,0,0,0,0,0,0,0,0,22.2,0,0,9999,77777,9,999999999,0,0,0,99,0.2,0,0
2023,6,17,5,60,9,30.4,25.1,73.0,101325,0,0,0,0,0,0,0,0,0,0,0,26.1,0,0,9999,77777,9,999999999,0,0,0,99,0.2,0,0
2023,6,17,6,60,9,30.7,25.2,73.0,101325,0,0,0,0,0,0,0,0,0,0,0,25.7,0,0,9999,77777,9,999999999,0,0,0,99,0.2,0,0
2023,6,17,7,60,9,31.3,25.2,70.0,101325,0,0,0,0,0,0,0,0,0,0,0,26.0,0,0,9999,77777,9,999999999,0,0,0,99,0.2,0,0
2023,6,17,8,60,9,31.4,25.3,70.0,101325,0,0,0,0,0,0,0,0,0,0,0,25.3,0,0,9999,77777,9,999999999,0,0,0,99,0.2,0,0
2023,6,17,9,60,9,31.2,25.2,71.0,101325,0,0,0,0,0,0,0,0,0,0,0,26.1,0,0,9999,77777,9,999999999,0,0,0,99,0.2,0,0
2023,6,17,10,60,9,30.6,25.3,74.0,101325,0,0,0,0,0,0,0,0,0,0,0,25.3,0,0,9999,77777,9,999999999,0,0,0,99,0.2,0,0
2023,6,17,11,60,9,30.3,25.4,75.0,101325,0,0,0,0,0,0,0,0,0,0,0,24.3,0,0,9999,77777,9,999999999,0,0,0,99,0.2,0,0
2023,6,17,12,60,9,30.3,25.2,74.0,101325,0,0,0,0,0,0,0,0,0,0,0,23.1,0,0,9999,77777,9,999999999,0,0,0,99,0.2,0,0
2023,6,17,13,60,9,29.0,24.5,77.0,101325,0,0,0,0,0,0,0,0,0,0,0,20.5,0,0,9999,77777,9,999999999,0,0,0,99,0.2,0,0
2023,6,17,14,60,9,29.0,24.6,77.0,101325,0,0,0,0,0,0,0,0,0,0,0,17.5,0,0,9999,77777,9,999999999,0,0,0,99,0.2,0,0
2023,6,17,15,60,9,28.5,25.0,81.0,101325,0,0,0,0,0,0,0,0,0,0,0,18.6,0,0,9999,77777,9,999999999,0,0,0,99,0.2,0,0
2023,6,17,16,60,9,28.6,24.9,80.0,101325,0,0,0,0,0,0,0,0,0,0,0,19.9,0,0,9999,77777,9,999999999,0,0,0,99,0.2,0,0
2023,6,17,17,60,9,28.6,24.9,80.0,101325,0,0,0,0,0,0,0,0,0,0,0,19.9,0,0,9999,77777,9,999999999,0,0,0,99,0.2,0,0
2023,6,17,18,60,9,28.2,25.2,84.0,101325,0,0,0,0,0,0,0,0,0,0,0,20.2,0,0,9999,77777,9,999999999,0,0,0,99,0.2,0,0
2023,6,17,19,60,9,28.0,25.3,85.0,101325,0,0,0,0,0,0,0,0,0,0,0,19.9,0,0,9999,77777,9,999999999,0,0,0,99,0.2,0,0
2023,6,17,20,60,9,27.8,25.3,87.0,101325,0,0,0,0,0,0,0,0,0,0,0,19.1,0,0,9999,77777,9,999999999,0,0,0,99,0.2,0,0
2023,6,17,21,60,9,27.6,25.3,87.0,101325,0,0,0,0,0,0,0,0,0,0,0,18.3,0,0,9999,77777,9,999999999,0,0,0,99,0.2,0,0
2023,6,17,22,60,9,27.8,25.4,87.0,101325,0,0,0,0,0,0,0,0,0,0,0,19.6,0,0,9999,77777,9,999999999,0,0,0,99,0.2,0,0
2023,6,17,23,60,9,27.7,25.3,87.0,101325,0,0,0,0,0,0,0,0,0,0,0,19.7,0,0,9999,77777,9,999999999,0,0,0,99,0.2,0,0
2023,6,17,24,60,9,27.7,25.5,88.0,101325,0,0,0,0,0,0,0,0,0,0,0,19.5,0,0,9999,77777,9,999999999,0,0,0,99,0.2,0,0
2023,6,18,1,60,9,27.7,25.3,87.0,101325,0,0,0,0,0,0,0,0,0,0,0,12.5,0,0,9999,77777,9,999999999,0,0,0,99,0.2,0,0
2023,6,18,2,60,9,28.3,24.9,82.0,101325,0,0,0,0,0,0,0,0,0,0,0,14.3,0,0,9999,77777,9,999999999,0,0,0,99,0.2,0,0
2023,6,18,3,60,9,28.9,25.4,82.0,101325,0,0,0,0,0,0,0,0,0,0,0,16.6,0,0,9999,77777,9,999999999,0,0,0,99,0.2,0,0
2023,6,18,4,60,9,29.5,24.9,76.0,101325,0,0,0,0,0,0,0,0,0,0,0,19.3,0,0,9999,77777,9,999999999,0,0,0,99,0.2,0,0
2023,6,18,5,60,9,30.2,25.0,74.0,101325,0,0,0,0,0,0,0,0,0,0,0,20.5,0,0,9999,77777,9,999999999,0,0,0,99,0.2,0,0
2023,6,18,6,60,9,30.5,25.2,73.0,101325,0,0,0,0,0,0,0,0,0,0,0,21.0,0,0,9999,77777,9,999999999,0,0,0,99,0.2,0,0
2023,6,18,7,60,9,30.9,25.2,72.0,101325,0,0,0,0,0,0,0,0,0,0,0,22.8,0,0,9999,77777,9,999999999,0,0,0,99,0.2,0,0
2023,6,18,8,60,9,31.1,25.0,70.0,101325,0,0,0,0,0,0,0,0,0,0,0,22.8,0,0,9999,77777,9,999999999,0,0,0,99,0.2,0,0
2023,6,18,9,60,9,31.1,25.1,70.0,101325,0,0,0,0,0,0,0,0,0,0,0,20.9,0,0,9999,77777,9,999999999,0,0,0,99,0.2,0,0
2023,6,18,10,60,9,31.0,25.0,71.0,101325,0,0,0,0,0,0,0,0,0,0,0,20.7,0,0,9999,77777,9,999999999,0,0,0,99,0.2,0,0
2023,6,18,11,60,9,31.0,24.8,70.0,101325,0,0,0,0,0,0,0,0,0,0,0,20.9,0,0,9999,77777,9,999999999,0,0,0,99,0.2,0,0
2023,6,18,12,60,9,30.6,24.6,70.0,101325,0,0,0,0,0,0,0,0,0,0,0,19.5,0,0,9999,77777,9,999999999,0,0,0,99,0.2,0,0
2023,6,18,13,60,9,29.5,24.1,73.0,101325,0,0,0,0,0,0,0,0,0,0,0,18.0,0,0,9999,77777,9,999999999,0,0,0,99,0.2,0,0
2023,6,18,14,60,9,29.0,24.7,78.0,101325,0,0,0,0,0,0,0,0,0,0,0,14.8,0,0,9999,77777,9,999999999,0,0,0,99,0.2,0,0
2023,6,18,15,60,9,28.5,24.9,81.0,101325,0,0,0,0,0,0,0,0,0,0,0,13.4,0,0,9999,77777,9,999999999,0,0,0,99,0.2,0,0
2023,6,18,16,60,9,28.3,25.1,83.0,101325,0,0,0,0,0,0,0,0,0,0,0,12.0,0,0,9999,77777,9,999999999,0,0,0,99,0.2,0,0
2023,6,18,17,60,9,28.2,25.1,83.0,101325,0,0,0,0,0,0,0,0,0,0,0,11.6,0,0,9999,77777,9,999999999,0,0,0,99,0.2,0,0
2023,6,18,18,60,9,28.3,25.0,82.0,101325,0,0,0,0,0,0,0,0,0,0,0,12.7,0,0,9999,77777,9,999999999,0,0,0,99,0.2,0,0
2023,6,18,19,60,9,28.3,24.9,82.0,101325,0,0,0,0,0,0,0,0,0,0,0,13.2,0,0,9999,77777,9,999999999,0,0,0,99,0.2,0,0
2023,6,18,20,60,9,28.3,24.8,82.0,101325,0,0,0,0,0,0,0,0,0,0,0,12.6,0,0,9999,77777,9,999999999,0,0,0,99,0.2,0,0
2023,6,18,21,60,9,28.2,24.8,82.0,101325,0,0,0,0,0,0,0,0,0,0,0,13.4,0,0,9999,77777,9,999999999,0,0,0,99,0.2,0,0
2023,6,18,22,60,9,28.0,25.0,84.0,101325,0,0,0,0,0,0,0,0,0,0,0,14.7,0,0,9999,77777,9,999999999,0,0,0,99,0.2,0,0
2023,6,18,23,60,9,28.0,25.0,84.0,101325,0,0,0,0,0,0,0,0,0,0,0,15.1,0,0,9999,77777,9,999999999,0,0,0,99,0.2,0,0
2023,6,18,24,60,9,27.7,25.0,85.0,101325,0,0,0,0,0,0,0,0,0,0,0,15.4,0,0,9999,77777,9,999999999,0,0,0,99,0.2,0,0
2023,6,19,1,60,9,28.3,24.9,82.0,101325,0,0,0,0,0,0,0,0,0,0,0,14.8,0,0,9999,77777,9,999999999,0,0,0,99,0.2,0,0
2023,6,19,2,60,9,28.5,24.9,81.0,101325,0,0,0,0,0,0,0,0,0,0,0,16.7,0,0,9999,77777,9,999999999,0,0,0,99,0.2,0,0
2023,6,19,3,60,9,29.1,24.8,78.0,101325,0,0,0,0,0,0,0,0,0,0,0,17.9,0,0,9999,77777,9,999999999,0,0,0,99,0.2,0,0
2023,6,19,4,60,9,30.0,24.6,73.0,101325,0,0,0,0,0,0,0,0,0,0,0,18.6,0,0,9999,77777,9,999999999,0,0,0,99,0.2,0,0
2023,6,19,5,60,9,30.8,24.6,70.0,101325,0,0,0,0,0,0,0,0,0,0,0,17.7,0,0,9999,77777,9,999999999,0,0,0,99,0.2,0,0
2023,6,19,6,60,9,31.1,24.5,68.0,101325,0,0,0,0,0,0,0,0,0,0,0,19.3,0,0,9999,77777,9,999999999,0,0,0,99,0.2,0,0
2023,6,19,7,60,9,30.9,25.0,71.0,101325,0,0,0,0,0,0,0,0,0,0,0,19.2,0,0,9999,77777,9,999999999,0,0,0,99,0.2,0,0
2023,6,19,8,60,9,31.2,25.1,70.0,101325,0,0,0,0,0,0,0,0,0,0,0,20.0,0,0,9999,77777,9,999999999,0,0,0,99,0.2,0,0
2023,6,19,9,60,9,31.2,25.1,70.0,101325,0,0,0,0,0,0,0,0,0,0,0,19.7,0,0,9999,77777,9,999999999,0,0,0,99,0.2,0,0
2023,6,19,10,60,9,31.4,24.9,68.0,101325,0,0,0,0,0,0,0,0,0,0,0,19.6,0,0,9999,77777,9,999999999,0,0,0,99,0.2,0,0
2023,6,19,11,60,9,31.2,24.8,69.0,101325,0,0,0,0,0,0,0,0,0,0,0,19.2,0,0,9999,77777,9,999999999,0,0,0,99,0.2,0,0
2023,6,19,12,60,9,30.6,24.8,71.0,101325,0,0,0,0,0,0,0,0,0,0,0,19.5,0,0,9999,77777,9,999999999,0,0,0,99,0.2,0,0
2023,6,19,13,60,9,29.8,24.9,75.0,101325,0,0,0,0,0,0,0,0,0,0,0,15.4,0,0,9999,77777,9,999999999,0,0,0,99,0.2,0,0
2023,6,19,14,60,9,29.2,24.9,78.0,101325,0,0,0,0,0,0,0,0,0,0,0,14.8,0,0,9999,77777,9,999999999,0,0,0,99,0.2,0,0
2023,6,19,15,60,9,28.7,25.1,81.0,101325,0,0,0,0,0,0,0,0,0,0,0,12.3,0,0,9999,77777,9,999999999,0,0,0,99,0.2,0,0
2023,6,19,16,60,9,28.7,25.3,82.0,101325,0,0,0,0,0,0,0,0,0,0,0,11.1,0,0,9999,77777,9,999999999,0,0,0,99,0.2,0,0
2023,6,19,17,60,9,28.5,25.4,83.0,101325,0,0,0,0,0,0,0,0,0,0,0,12.4,0,0,9999,77777,9,999999999,0,0,0,99,0.2,0,0
2023,6,19,18,60,9,28.4,25.3,83.0,101325,0,0,0,0,0,0,0,0,0,0,0,12.2,0,0,9999,77777,9,999999999,0,0,0,99,0.2,0,0
2023,6,19,19,60,9,28.3,25.3,84.0,101325,0,0,0,0,0,0,0,0,0,0,0,11.7,0,0,9999,77777,9,999999999,0,0,0,99,0.2,0,0
2023,6,19,20,60,9,28.1,25.3,85.0,101325,0,0,0,0,0,0,0,0,0,0,0,11.7,0,0,9999,77777,9,999999999,0,0,0,99,0.2,0,0
2023,6,19,21,60,9,27.8,25.4,87.0,101325,0,0,0,0,0,0,0,0,0,0,0,11.3,0,0,9999,77777,9,999999999,0,0,0,99,0.2,0,0
2023,6,19,22,60,9,27.8,25.4,87.0,101325,0,0,0,0,0,0,0,0,0,0,0,11.8,0,0,9999,77777,9,999999999,0,0,0,99,0.2,0,0
2023,6,19,23,60,9,27.6,25.4,88.0,101325,0,0,0,0,0,0,0,0,0,0,0,13.0,0,0,9999,77777,9,999999999,0,0,0,99,0.2,0,0
2023,6,19,24,60,9,27.5,25.4,88.0,101325,0,0,0,0,0,0,0,0,0,0,0,10.2,0,0,9999,77777,9,999999999,0,0,0,99,0.2,0,0
2023,6,20,1,60,9,28.3,25.0,82.0,101325,0,0,0,0,0,0,0,0,0,0,0,11.4,0,0,9999,77777,9,999999999,0,0,0,99,0.2,0,0
2023,6,20,2,60,9,28.4,25.1,83.0,101325,0,0,0,0,0,0,0,0,0,0,0,10.4,0,0,9999,77777,9,999999999,0,0,0,99,0.2,0,0
2023,6,20,3,60,9,29.4,24.6,76.0,101325,0,0,0,0,0,0,0,0,0,0,0,13.4,0,0,9999,77777,9,999999999,0,0,0,99,0.2,0,0
2023,6,20,4,60,9,30.1,24.5,72.0,101325,0,0,0,0,0,0,0,0,0,0,0,13.6,0,0,9999,77777,9,999999999,0,0,0,99,0.2,0,0
2023,6,20,5,60,9,30.7,24.6,70.0,101325,0,0,0,0,0,0,0,0,0,0,0,14.4,0,0,9999,77777,9,999999999,0,0,0,99,0.2,0,0
2023,6,20,6,60,9,30.8,24.6,70.0,101325,0,0,0,0,0,0,0,0,0,0,0,15.3,0,0,9999,77777,9,999999999,0,0,0,99,0.2,0,0
2023,6,20,7,60,9,31.1,24.6,68.0,101325,0,0,0,0,0,0,0,0,0,0,0,15.3,0,0,9999,77777,9,999999999,0,0,0,99,0.2,0,0
2023,6,20,8,60,9,31.5,24.6,67.0,101325,0,0,0,0,0,0,0,0,0,0,0,17.2,0,0,9999,77777,9,999999999,0,0,0,99,0.2,0,0
2023,6,20,9,60,9,31.4,24.6,67.0,101325,0,0,0,0,0,0,0,0,0,0,0,19.2,0,0,9999,77777,9,999999999,0,0,0,99,0.2,0,0
2023,6,20,10,60,9,31.1,24.9,69.0,101325,0,0,0,0,0,0,0,0,0,0,0,20.4,0,0,9999,77777,9,999999999,0,0,0,99,0.2,0,0
2023,6,20,11,60,9,31.0,24.9,70.0,101325,0,0,0,0,0,0,0,0,0,0,0,19.6,0,0,9999,77777,9,999999999,0,0,0,99,0.2,0,0
2023,6,20,12,60,9,30.6,24.9,72.0,101325,0,0,0,0,0,0,0,0,0,0,0,19.4,0,0,9999,77777,9,999999999,0,0,0,99,0.2,0,0
2023,6,20,13,60,9,29.8,24.6,74.0,101325,0,0,0,0,0,0,0,0,0,0,0,17.1,0,0,9999,77777,9,999999999,0,0,0,99,0.2,0,0
2023,6,20,14,60,9,29.1,24.8,77.0,101325,0,0,0,0,0,0,0,0,0,0,0,16.4,0,0,9999,77777,9,999999999,0,0,0,99,0.2,0,0
2023,6,20,15,60,9,28.4,24.8,81.0,101325,0,0,0,0,0,0,0,0,0,0,0,14.8,0,0,9999,77777,9,999999999,0,0,0,99,0.2,0,0
2023,6,20,16,60,9,28.3,24.9,82.0,101325,0,0,0,0,0,0,0,0,0,0,0,12.1,0,0,9999,77777,9,999999999,0,0,0,99,0.2,0,0
2023,6,20,17,60,9,28.1,25.1,84.0,101325,0,0,0,0,0,0,0,0,0,0,0,9.0,0,0,9999,77777,9,999999999,0,0,0,99,0.2,0,0
2023,6,20,18,60,9,28.1,25.3,85.0,101325,0,0,0,0,0,0,0,0,0,0,0,8.7,0,0,9999,77777,9,999999999,0,0,0,99,0.2,0,0
2023,6,20,19,60,9,28.0,25.2,85.0,101325,0,0,0,0,0,0,0,0,0,0,0,9.4,0,0,9999,77777,9,999999999,0,0,0,99,0.2,0,0
2023,6,20,20,60,9,28.0,25.2,85.0,101325,0,0,0,0,0,0,0,0,0,0,0,10.0,0,0,9999,77777,9,999999999,0,0,0,99,0.2,0,0
2023,6,20,21,60,9,28.0,25.2,85.0,101325,0,0,0,0,0,0,0,0,0,0,0,9.4,0,0,9999,77777,9,999999999,0,0,0,99,0.2,0,0
2023,6,20,22,60,9,27.8,25.2,86.0,101325,0,0,0,0,0,0,0,0,0,0,0,9.3,0,0,9999,77777,9,999999999,0,0,0,99,0.2,0,0
2023,6,20,23,60,9,27.8,25.1,85.0,101325,0,0,0,0,0,0,0,0,0,0,0,10.3,0,0,9999,77777,9,999999999,0,0,0,99,0.2,0,0
2023,6,20,24,60,9,27.8,25.1,86.0,101325,0,0,0,0,0,0,0,0,0,0,0,9.7,0,0,9999,77777,9,999999999,0,0,0,99,0.2,0,0
2023,6,21,1,60,9,27.6,25.7,90.0,101325,0,0,0,0,0,0,0,0,0,0,0,7.3,0,0,9999,77777,9,999999999,0,0,0,99,0.2,0,0
2023,6,21,2,60,9,27.9,25.9,89.0,101325,0,0,0,0,0,0,0,0,0,0,0,6.9,0,0,9999,77777,9,999999999,0,0,0,99,0.2,0,0
2023,6,21,3,60,9,28.6,25.5,83.0,101325,0,0,0,0,0,0,0,0,0,0,0,8.8,0,0,9999,77777,9,999999999,0,0,0,99,0.2,0,0
2023,6,21,4,60,9,29.2,25.5,81.0,101325,0,0,0,0,0,0,0,0,0,0,0,10.7,0,0,9999,77777,9,999999999,0,0,0,99,0.2,0,0
2023,6,21,5,60,9,30.1,25.7,78.0,101325,0,0,0,0,0,0,0,0,0,0,0,12.4,0,0,9999,77777,9,999999999,0,0,0,99,0.2,0,0
2023,6,21,6,60,9,30.6,25.5,74.0,101325,0,0,0,0,0,0,0,0,0,0,0,14.6,0,0,9999,77777,9,999999999,0,0,0,99,0.2,0,0
2023,6,21,7,60,9,30.9,25.4,73.0,101325,0,0,0,0,0,0,0,0,0,0,0,16.6,0,0,9999,77777,9,999999999,0,0,0,99,0.2,0,0
2023,6,21,8,60,9,31.3,25.2,70.0,101325,0,0,0,0,0,0,0,0,0,0,0,17.7,0,0,9999,77777,9,999999999,0,0,0,99,0.2,0,0
2023,6,21,9,60,9,31.6,25.0,68.0,101325,0,0,0,0,0,0,0,0,0,0,0,18.6,0,0,9999,77777,9,999999999,0,0,0,99,0.2,0,0
2023,6,21,10,60,9,31.4,25.0,69.0,101325,0,0,0,0,0,0,0,0,0,0,0,19.5,0,0,9999,77777,9,999999999,0,0,0,99,0.2,0,0
2023,6,21,11,60,9,31.3,24.9,69.0,101325,0,0,0,0,0,0,0,0,0,0,0,19.6,0,0,9999,77777,9,999999999,0,0,0,99,0.2,0,0
2023,6,21,12,60,9,30.8,25.1,72.0,101325,0,0,0,0,0,0,0,0,0,0,0,19.3,0,0,9999,77777,9,999999999,0,0,0,99,0.2,0,0
2023,6,21,13,60,9,30.3,25.0,73.0,101325,0,0,0,0,0,0,0,0,0,0,0,16.2,0,0,9999,77777,9,999999999,0,0,0,99,0.2,0,0
2023,6,21,14,60,9,29.6,25.0,76.0,101325,0,0,0,0,0,0,0,0,0,0,0,15.3,0,0,9999,77777,9,999999999,0,0,0,99,0.2,0,0
2023,6,21,15,60,9,29.1,25.1,79.0,101325,0,0,0,0,0,0,0,0,0,0,0,13.0,0,0,9999,77777,9,999999999,0,0,0,99,0.2,0,0
2023,6,21,16,60,9,28.9,25.2,80.0,101325,0,0,0,0,0,0,0,0,0,0,0,12.4,0,0,9999,77777,9,999999999,0,0,0,99,0.2,0,0
2023,6,21,17,60,9,28.7,25.3,82.0,101325,0,0,0,0,0,0,0,0,0,0,0,11.7,0,0,9999,77777,9,999999999,0,0,0,99,0.2,0,0
2023,6,21,18,60,9,28.6,25.4,83.0,101325,0,0,0,0,0,0,0,0,0,0,0,11.4,0,0,9999,77777,9,999999999,0,0,0,99,0.2,0,0
2023,6,21,19,60,9,28.4,25.5,84.0,101325,0,0,0,0,0,0,0,0,0,0,0,12.2,0,0,9999,77777,9,999999999,0,0,0,99,0.2,0,0
2023,6,21,20,60,9,28.2,25.5,86.0,101325,0,0,0,0,0,0,0,0,0,0,0,13.2,0,0,9999,77777,9,999999999,0,0,0,99,0.2,0,0
2023,6,21,21,60,9,27.9,25.6,88.0,101325,0,0,0,0,0,0,0,0,0,0,0,13.8,0,0,9999,77777,9,999999999,0,0,0,99,0.2,0,0
2023,6,21,22,60,9,27.8,25.5,87.0,101325,0,0,0,0,0,0,0,0,0,0,0,13.0,0,0,9999,77777,9,999999999,0,0,0,99,0.2,0,0
2023,6,21,23,60,9,27.7,25.3,87.0,101325,0,0,0,0,0,0,0,0,0,0,0,11.6,0,0,9999,77777,9,999999999,0,0,0,99,0.2,0,0
2023,6,21,24,60,9,27.5,24.9,86.0,101325,0,0,0,0,0,0,0,0,0,0,0,13.8,0,0,9999,77777,9,999999999,0,0,0,99,0.2,0,0
2023,6,22,1,60,9,28.2,25.3,84.0,101325,0,0,0,0,0,0,0,0,0,0,0,10.0,0,0,9999,77777,9,999999999,0,0,0,99,0.2,0,0
2023,6,22,2,60,9,28.4,24.9,82.0,101325,0,0,0,0,0,0,0,0,0,0,0,9.1,0,0,9999,77777,9,999999999,0,0,0,99,0.2,0,0
2023,6,22,3,60,9,29.3,24.3,75.0,101325,0,0,0,0,0,0,0,0,0,0,0,10.1,0,0,9999,77777,9,999999999,0,0,0,99,0.2,0,0
2023,6,22,4,60,9,29.9,24.2,72.0,101325,0,0,0,0,0,0,0,0,0,0,0,11.8,0,0,9999,77777,9,999999999,0,0,0,99,0.2,0,0
2023,6,22,5,60,9,30.5,24.2,69.0,101325,0,0,0,0,0,0,0,0,0,0,0,12.6,0,0,9999,77777,9,999999999,0,0,0,99,0.2,0,0
2023,6,22,6,60,9,30.9,24.4,69.0,101325,0,0,0,0,0,0,0,0,0,0,0,13.5,0,0,9999,77777,9,999999999,0,0,0,99,0.2,0,0
2023,6,22,7,60,9,31.3,24.5,67.0,101325,0,0,0,0,0,0,0,0,0,0,0,15.5,0,0,9999,77777,9,999999999,0,0,0,99,0.2,0,0
2023,6,22,8,60,9,31.6,24.6,67.0,101325,0,0,0,0,0,0,0,0,0,0,0,16.6,0,0,9999,77777,9,999999999,0,0,0,99,0.2,0,0
2023,6,22,9,60,9,31.5,24.7,67.0,101325,0,0,0,0,0,0,0,0,0,0,0,17.4,0,0,9999,77777,9,999999999,0,0,0,99,0.2,0,0
2023,6,22,10,60,9,31.6,24.6,66.0,101325,0,0,0,0,0,0,0,0,0,0,0,18.2,0,0,9999,77777,9,999999999,0,0,0,99,0.2,0,0
2023,6,22,11,60,9,31.3,24.6,67.0,101325,0,0,0,0,0,0,0,0,0,0,0,18.7,0,0,9999,77777,9,999999999,0,0,0,99,0.2,0,0
2023,6,22,12,60,9,31.0,24.5,68.0,101325,0,0,0,0,0,0,0,0,0,0,0,17.7,0,0,9999,77777,9,999999999,0,0,0,99,0.2,0,0
2023,6,22,13,60,9,30.3,24.7,72.0,101325,0,0,0,0,0,0,0,0,0,0,0,15.2,0,0,9999,77777,9,999999999,0,0,0,99,0.2,0,0
2023,6,22,14,60,9,29.7,24.7,74.0,101325,0,0,0,0,0,0,0,0,0,0,0,14.7,0,0,9999,77777,9,999999999,0,0,0,99,0.2,0,0
2023,6,22,15,60,9,29.1,25.0,79.0,101325,0,0,0,0,0,0,0,0,0,0,0,12.4,0,0,9999,77777,9,999999999,0,0,0,99,0.2,0,0
2023,6,22,16,60,9,29.0,25.0,79.0,101325,0,0,0,0,0,0,0,0,0,0,0,11.1,0,0,9999,77777,9,999999999,0,0,0,99,0.2,0,0
2023,6,22,17,60,9,29.0,24.9,79.0,101325,0,0,0,0,0,0,0,0,0,0,0,11.8,0,0,9999,77777,9,999999999,0,0,0,99,0.2,0,0
2023,6,22,18,60,9,28.8,25.1,80.0,101325,0,0,0,0,0,0,0,0,0,0,0,12.2,0,0,9999,77777,9,999999999,0,0,0,99,0.2,0,0
2023,6,22,19,60,9,28.5,25.2,83.0,101325,0,0,0,0,0,0,0,0,0,0,0,11.5,0,0,9999,77777,9,999999999,0,0,0,99,0.2,0,0
2023,6,22,20,60,9,27.7,25.0,85.0,101325,0,0,0,0,0,0,0,0,0,0,0,11.8,0,0,9999,77777,9,999999999,0,0,0,99,0.2,0,0
2023,6,22,21,60,9,27.9,24.7,83.0,101325,0,0,0,0,0,0,0,0,0,0,0,11.2,0,0,9999,77777,9,999999999,0,0,0,99,0.2,0,0
2023,6,22,22,60,9,27.8,25.3,87.0,101325,0,0,0,0,0,0,0,0,0,0,0,11.1,0,0,9999,77777,9,999999999,0,0,0,99,0.2,0,0
2023,6,22,23,60,9,27.3,25.4,89.0,101325,0,0,0,0,0,0,0,0,0,0,0,10.1,0,0,9999,77777,9,999999999,0,0,0,99,0.2,0,0
2023,6,22,24,60,9,26.7,25.0,90.0,101325,0,0,0,0,0,0,0,0,0,0,0,8.7,0,0,9999,77777,9,999999999,0,0,0,99,0.2,0,0
2023,6,23,1,60,9,27.3,25.4,89.0,101325,0,0,0,0,0,0,0,0,0,0,0,9.6,0,0,9999,77777,9,999999999,0,0,0,99,0.2,0,0
2023,6,23,2,60,9,27.5,25.4,88.0,101325,0,0,0,0,0,0,0,0,0,0,0,8.2,0,0,9999,77777,9,999999999,0,0,0,99,0.2,0,0
2023,6,23,3,60,9,27.9,24.7,83.0,101325,0,0,0,0,0,0,0,0,0,0,0,9.9,0,0,9999,77777,9,999999999,0,0,0,99,0.2,0,0
2023,6,23,4,60,9,27.8,24.4,82.0,101325,0,0,0,0,0,0,0,0,0,0,0,12.5,0,0,9999,77777,9,999999999,0,0,0,99,0.2,0,0
2023,6,23,5,60,9,28.4,24.6,80.0,101325,0,0,0,0,0,0,0,0,0,0,0,10.3,0,0,9999,77777,9,999999999,0,0,0,99,0.2,0,0
2023,6,23,6,60,9,29.4,24.9,77.0,101325,0,0,0,0,0,0,0,0,0,0,0,13.2,0,0,9999,77777,9,999999999,0,0,0,99,0.2,0,0
2023,6,23,7,60,9,30.1,25.0,74.0,101325,0,0,0,0,0,0,0,0,0,0,0,14.3,0,0,9999,77777,9,999999999,0,0,0,99,0.2,0,0
2023,6,23,8,60,9,30.8,25.0,71.0,101325,0,0,0,0,0,0,0,0,0,0,0,14.7,0,0,9999,77777,9,999999999,0,0,0,99,0.2,0,0
2023,6,23,9,60,9,30.8,25.0,71.0,101325,0,0,0,0,0,0,0,0,0,0,0,14.3,0,0,9999,77777,9,999999999,0,0,0,99,0.2,0,0
2023,6,23,10,60,9,30.7,25.1,72.0,101325,0,0,0,0,0,0,0,0,0,0,0,16.5,0,0,9999,77777,9,999999999,0,0,0,99,0.2,0,0
2023,6,23,11,60,9,30.5,24.9,72.0,101325,0,0,0,0,0,0,0,0,0,0,0,18.8,0,0,9999,77777,9,999999999,0,0,0,99,0.2,0,0
2023,6,23,12,60,9,29.9,24.9,74.0,101325,0,0,0,0,0,0,0,0,0,0,0,19.3,0,0,9999,77777,9,999999999,0,0,0,99,0.2,0,0
2023,6,23,13,60,9,29.7,24.8,75.0,101325,0,0,0,0,0,0,0,0,0,0,0,17.3,0,0,9999,77777,9,999999999,0,0,0,99,0.2,0,0
2023,6,23,14,60,9,29.0,25.0,79.0,101325,0,0,0,0,0,0,0,0,0,0,0,14.9,0,0,9999,77777,9,999999999,0,0,0,99,0.2,0,0
2023,6,23,15,60,9,28.5,25.1,82.0,101325,0,0,0,0,0,0,0,0,0,0,0,13.7,0,0,9999,77777,9,999999999,0,0,0,99,0.2,0,0
2023,6,23,16,60,9,28.4,25.1,82.0,101325,0,0,0,0,0,0,0,0,0,0,0,12.2,0,0,9999,77777,9,999999999,0,0,0,99,0.2,0,0
2023,6,23,17,60,9,28.1,25.0,83.0,101325,0,0,0,0,0,0,0,0,0,0,0,12.0,0,0,9999,77777,9,999999999,0,0,0,99,0.2,0,0
2023,6,23,18,60,9,27.9,25.0,84.0,101325,0,0,0,0,0,0,0,0,0,0,0,14.4,0,0,9999,77777,9,999999999,0,0,0,99,0.2,0,0
2023,6,23,19,60,9,27.1,24.7,86.0,101325,0,0,0,0,0,0,0,0,0,0,0,15.8,0,0,9999,77777,9,999999999,0,0,0,99,0.2,0,0
2023,6,23,20,60,9,27.0,24.5,86.0,101325,0,0,0,0,0,0,0,0,0,0,0,15.1,0,0,9999,77777,9,999999999,0,0,0,99,0.2,0,0
2023,6,23,21,60,9,26.9,25.2,90.0,101325,0,0,0,0,0,0,0,0,0,0,0,11.3,0,0,9999,77777,9,999999999,0,0,0,99,0.2,0,0
2023,6,23,22,60,9,26.0,24.8,93.0,101325,0,0,0,0,0,0,0,0,0,0,0,10.9,0,0,9999,77777,9,999999999,0,0,0,99,0.2,0,0
2023,6,23,23,60,9,26.1,24.0,88.0,101325,0,0,0,0,0,0,0,0,0,0,0,9.7,0,0,9999,77777,9,999999999,0,0,0,99,0.2,0,0
2023,6,23,24,60,9,26.2,24.4,90.0,101325,0,0,0,0,0,0,0,0,0,0,0,8.4,0,0,9999,77777,9,999999999,0,0,0,99,0.2,0,0
2023,6,24,1,60,9,26.0,24.5,92.0,101325,0,0,0,0,0,0,0,0,0,0,0,8.9,0,0,9999,77777,9,999999999,0,0,0,99,0.2,0,0
2023,6,24,2,60,9,26.2,24.0,88.0,101325,0,0,0,0,0,0,0,0,0,0,0,4.9,0,0,9999,77777,9,999999999,0,0,0,99,0.2,0,0
2023,6,24,3,60,9,26.9,24.3,86.0,101325,0,0,0,0,0,0,0,0,0,0,0,8.0,0,0,9999,77777,9,999999999,0,0,0,99,0.2,0,0
2023,6,24,4,60,9,27.7,24.3,82.0,101325,0,0,0,0,0,0,0,0,0,0,0,7.3,0,0,9999,77777,9,999999999,0,0,0,99,0.2,0,0
2023,6,24,5,60,9,28.4,24.6,80.0,101325,0,0,0,0,0,0,0,0,0,0,0,9.7,0,0,9999,77777,9,999999999,0,0,0,99,0.2,0,0
2023,6,24,6,60,9,28.0,24.6,82.0,101325,0,0,0,0,0,0,0,0,0,0,0,12.5,0,0,9999,77777,9,999999999,0,0,0,99,0.2,0,0
2023,6,24,7,60,9,27.7,24.6,83.0,101325,0,0,0,0,0,0,0,0,0,0,0,10.5,0,0,9999,77777,9,999999999,0,0,0,99,0.2,0,0
2023,6,24,8,60,9,29.2,24.8,77.0,101325,0,0,0,0,0,0,0,0,0,0,0,13.4,0,0,9999,77777,9,999999999,0,0,0,99,0.2,0,0
2023,6,24,9,60,9,29.3,24.6,76.0,101325,0,0,0,0,0,0,0,0,0,0,0,14.1,0,0,9999,77777,9,999999999,0,0,0,99,0.2,0,0
2023,6,24,10,60,9,26.8,24.3,86.0,101325,0,0,0,0,0,0,0,0,0,0,0,17.7,0,0,9999,77777,9,999999999,0,0,0,99,0.2,0,0
2023,6,24,11,60,9,28.1,24.2,79.0,101325,0,0,0,0,0,0,0,0,0,0,0,13.5,0,0,9999,77777,9,999999999,0,0,0,99,0.2,0,0
2023,6,24,12,60,9,28.6,24.5,79.0,101325,0,0,0,0,0,0,0,0,0,0,0,14.8,0,0,9999,77777,9,999999999,0,0,0,99,0.2,0,0
2023,6,24,13,60,9,27.7,24.4,83.0,101325,0,0,0,0,0,0,0,0,0,0,0,16.7,0,0,9999,77777,9,999999999,0,0,0,99,0.2,0,0
2023,6,24,14,60,9,26.7,24.0,85.0,101325,0,0,0,0,0,0,0,0,0,0,0,13.0,0,0,9999,77777,9,999999999,0,0,0,99,0.2,0,0
2023,6,24,15,60,9,26.2,24.8,92.0,101325,0,0,0,0,0,0,0,0,0,0,0,8.4,0,0,9999,77777,9,999999999,0,0,0,99,0.2,0,0
2023,6,24,16,60,9,25.2,24.0,93.0,101325,0,0,0,0,0,0,0,0,0,0,0,10.0,0,0,9999,77777,9,999999999,0,0,0,99,0.2,0,0
2023,6,24,17,60,9,25.6,24.0,91.0,101325,0,0,0,0,0,0,0,0,0,0,0,6.5,0,0,9999,77777,9,999999999,0,0,0,99,0.2,0,0
2023,6,24,18,60,9,25.8,24.4,92.0,101325,0,0,0,0,0,0,0,0,0,0,0,6.5,0,0,9999,77777,9,999999999,0,0,0,99,0.2,0,0
2023,6,24,19,60,9,25.8,24.7,94.0,101325,0,0,0,0,0,0,0,0,0,0,0,13.0,0,0,9999,77777,9,999999999,0,0,0,99,0.2,0,0
2023,6,24,20,60,9,26.0,24.4,91.0,101325,0,0,0,0,0,0,0,0,0,0,0,13.7,0,0,9999,77777,9,999999999,0,0,0,99,0.2,0,0
2023,6,24,21,60,9,25.7,24.1,91.0,101325,0,0,0,0,0,0,0,0,0,0,0,9.2,0,0,9999,77777,9,999999999,0,0,0,99,0.2,0,0
2023,6,24,22,60,9,26.1,24.6,91.0,101325,0,0,0,0,0,0,0,0,0,0,0,7.2,0,0,9999,77777,9,999999999,0,0,0,99,0.2,0,0
2023,6,24,23,60,9,26.2,24.6,91.0,101325,0,0,0,0,0,0,0,0,0,0,0,9.3,0,0,9999,77777,9,999999999,0,0,0,99,0.2,0,0
2023,6,24,24,60,9,26.4,24.7,90.0,101325,0,0,0,0,0,0,0,0,0,0,0,9.0,0,0,9999,77777,9,999999999,0,0,0,99,0.2,0,0
2023,6,25,1,60,9,26.0,24.5,91.0,101325,0,0,0,0,0,0,0,0,0,0,0,11.2,0,0,9999,77777,9,999999999,0,0,0,99,0.2,0,0
2023,6,25,2,60,9,25.6,24.1,91.0,101325,0,0,0,0,0,0,0,0,0,0,0,15.6,0,0,9999,77777,9,999999999,0,0,0,99,0.2,0,0
2023,6,25,3,60,9,26.4,24.7,90.0,101325,0,0,0,0,0,0,0,0,0,0,0,10.7,0,0,9999,77777,9,999999999,0,0,0,99,0.2,0,0
2023,6,25,4,60,9,25.6,24.2,92.0,101325,0,0,0,0,0,0,0,0,0,0,0,15.9,0,0,9999,77777,9,999999999,0,0,0,99,0.2,0,0
2023,6,25,5,60,9,25.5,23.5,89.0,101325,0,0,0,0,0,0,0,0,0,0,0,4.6,0,0,9999,77777,9,999999999,0,0,0,99,0.2,0,0
2023,6,25,6,60,9,25.8,23.0,85.0,101325,0,0,0,0,0,0,0,0,0,0,0,2.0,0,0,9999,77777,9,999999999,0,0,0,99,0.2,0,0
2023,6,25,7,60,9,26.6,24.3,87.0,101325,0,0,0,0,0,0,0,0,0,0,0,7.4,0,0,9999,77777,9,999999999,0,0,0,99,0.2,0,0
2023,6,25,8,60,9,26.9,24.4,86.0,101325,0,0,0,0,0,0,0,0,0,0,0,11.9,0,0,9999,77777,9,999999999,0,0,0,99,0.2,0,0
2023,6,25,9,60,9,27.4,24.4,84.0,101325,0,0,0,0,0,0,0,0,0,0,0,14.1,0,0,9999,77777,9,999999999,0,0,0,99,0.2,0,0
2023,6,25,10,60,9,27.2,23.8,82.0,101325,0,0,0,0,0,0,0,0,0,0,0,17.3,0,0,9999,77777,9,999999999,0,0,0,99,0.2,0,0
2023,6,25,11,60,9,27.3,24.4,84.0,101325,0,0,0,0,0,0,0,0,0,0,0,15.5,0,0,9999,77777,9,999999999,0,0,0,99,0.2,0,0
2023,6,25,12,60,9,27.5,24.5,84.0,101325,0,0,0,0,0,0,0,0,0,0,0,18.3,0,0,9999,77777,9,999999999,0,0,0,99,0.2,0,0
2023,6,25,13,60,9,26.9,24.6,87.0,101325,0,0,0,0,0,0,0,0,0,0,0,12.5,0,0,9999,77777,9,999999999,0,0,0,99,0.2,0,0
2023,6,25,14,60,9,26.8,24.6,88.0,101325,0,0,0,0,0,0,0,0,0,0,0,12.3,0,0,9999,77777,9,999999999,0,0,0,99,0.2,0,0
2023,6,25,15,60,9,26.0,24.5,91.0,101325,0,0,0,0,0,0,0,0,0,0,0,11.5,0,0,9999,77777,9,999999999,0,0,0,99,0.2,0,0
2023,6,25,16,60,9,26.5,24.5,89.0,101325,0,0,0,0,0,0,0,0,0,0,0,11.7,0,0,9999,77777,9,999999999,0,0,0,99,0.2,0,0
2023,6,25,17,60,9,26.4,24.4,89.0,101325,0,0,0,0,0,0,0,0,0,0,0,12.6,0,0,9999,77777,9,999999999,0,0,0,99,0.2,0,0
2023,6,25,18,60,9,26.6,24.5,88.0,101325,0,0,0,0,0,0,0,0,0,0,0,12.2,0,0,9999,77777,9,999999999,0,0,0,99,0.2,0,0
2023,6,25,19,60,9,26.3,24.5,90.0,101325,0,0,0,0,0,0,0,0,0,0,0,14.2,0,0,9999,77777,9,999999999,0,0,0,99,0.2,0,0
2023,6,25,20,60,9,26.2,24.6,91.0,101325,0,0,0,0,0,0,0,0,0,0,0,15.0,0,0,9999,77777,9,999999999,0,0,0,99,0.2,0,0
2023,6,25,21,60,9,26.2,24.6,91.0,101325,0,0,0,0,0,0,0,0,0,0,0,14.3,0,0,9999,77777,9,999999999,0,0,0,99,0.2,0,0
2023,6,25,22,60,9,25.8,24.1,90.0,101325,0,0,0,0,0,0,0,0,0,0,0,17.7,0,0,9999,77777,9,999999999,0,0,0,99,0.2,0,0
2023,6,25,23,60,9,25.7,24.0,91.0,101325,0,0,0,0,0,0,0,0,0,0,0,15.0,0,0,9999,77777,9,999999999,0,0,0,99,0.2,0,0
2023,6,25,24,60,9,26.4,24.5,89.0,101325,0,0,0,0,0,0,0,0,0,0,0,15.7,0,0,9999,77777,9,999999999,0,0,0,99,0.2,0,0
2023,6,26,1,60,9,25.8,24.5,92.0,101325,0,0,0,0,0,0,0,0,0,0,0,15.9,0,0,9999,77777,9,999999999,0,0,0,99,0.2,0,0
2023,6,26,2,60,9,26.2,24.5,91.0,101325,0,0,0,0,0,0,0,0,0,0,0,13.5,0,0,9999,77777,9,999999999,0,0,0,99,0.2,0,0
2023,6,26,3,60,9,25.8,24.2,91.0,101325,0,0,0,0,0,0,0,0,0,0,0,18.9,0,0,9999,77777,9,999999999,0,0,0,99,0.2,0,0
2023,6,26,4,60,9,26.2,24.3,89.0,101325,0,0,0,0,0,0,0,0,0,0,0,10.1,0,0,9999,77777,9,999999999,0,0,0,99,0.2,0,0
2023,6,26,5,60,9,25.9,24.0,89.0,101325,0,0,0,0,0,0,0,0,0,0,0,18.9,0,0,9999,77777,9,999999999,0,0,0,99,0.2,0,0
2023,6,26,6,60,9,25.4,24.0,92.0,101325,0,0,0,0,0,0,0,0,0,0,0,16.2,0,0,9999,77777,9,999999999,0,0,0,99,0.2,0,0
2023,6,26,7,60,9,26.6,23.9,85.0,101325,0,0,0,0,0,0,0,0,0,0,0,15.1,0,0,9999,77777,9,999999999,0,0,0,99,0.2,0,0
2023,6,26,8,60,9,25.4,24.2,93.0,101325,0,0,0,0,0,0,0,0,0,0,0,16.1,0,0,9999,77777,9,999999999,0,0,0,99,0.2,0,0
2023,6,26,9,60,9,26.0,24.5,91.0,101325,0,0,0,0,0,0,0,0,0,0,0,17.9,0,0,9999,77777,9,999999999,0,0,0,99,0.2,0,0
2023,6,26,10,60,9,26.0,24.2,90.0,101325,0,0,0,0,0,0,0,0,0,0,0,18.7,0,0,9999,77777,9,999999999,0,0,0,99,0.2,0,0
2023,6,26,11,60,9,26.7,24.0,85.0,101325,0,0,0,0,0,0,0,0,0,0,0,13.8,0,0,9999,77777,9,999999999,0,0,0,99,0.2,0,0
2023,6,26,12,60,9,25.2,23.8,92.0,101325,0,0,0,0,0,0,0,0,0,0,0,16.6,0,0,9999,77777,9,999999999,0,0,0,99,0.2,0,0
2023,6,26,13,60,9,25.6,24.1,92.0,101325,0,0,0,0,0,0,0,0,0,0,0,14.8,0,0,9999,77777,9,999999999,0,0,0,99,0.2,0,0
2023,6,26,14,60,9,25.4,24.3,93.0,101325,0,0,0,0,0,0,0,0,0,0,0,13.3,0,0,9999,77777,9,999999999,0,0,0,99,0.2,0,0
2023,6,26,15,60,9,25.3,23.9,92.0,101325,0,0,0,0,0,0,0,0,0,0,0,6.0,0,0,9999,77777,9,999999999,0,0,0,99,0.2,0,0
2023,6,26,16,60,9,25.4,24.3,94.0,101325,0,0,0,0,0,0,0,0,0,0,0,8.4,0,0,9999,77777,9,999999999,0,0,0,99,0.2,0,0
2023,6,26,17,60,9,25.5,24.1,92.0,101325,0,0,0,0,0,0,0,0,0,0,0,10.8,0,0,9999,77777,9,999999999,0,0,0,99,0.2,0,0
2023,6,26,18,60,9,25.5,24.1,92.0,101325,0,0,0,0,0,0,0,0,0,0,0,7.1,0,0,9999,77777,9,999999999,0,0,0,99,0.2,0,0
2023,6,26,19,60,9,25.9,24.4,91.0,101325,0,0,0,0,0,0,0,0,0,0,0,9.9,0,0,9999,77777,9,999999999,0,0,0,99,0.2,0,0
2023,6,26,20,60,9,25.9,24.2,90.0,101325,0,0,0,0,0,0,0,0,0,0,0,14.1,0,0,9999,77777,9,999999999,0,0,0,99,0.2,0,0
2023,6,26,21,60,9,25.6,24.4,93.0,101325,0,0,0,0,0,0,0,0,0,0,0,14.0,0,0,9999,77777,9,999999999,0,0,0,99,0.2,0,0
2023,6,26,22,60,9,25.7,24.0,91.0,101325,0,0,0,0,0,0,0,0,0,0,0,15.4,0,0,9999,77777,9,999999999,0,0,0,99,0.2,0,0
2023,6,26,23,60,9,24.7,23.5,93.0,101325,0,0,0,0,0,0,0,0,0,0,0,16.6,0,0,9999,77777,9,999999999,0,0,0,99,0.2,0,0
2023,6,26,24,60,9,25.2,23.9,93.0,101325,0,0,0,0,0,0,0,0,0,0,0,17.4,0,0,9999,77777,9,999999999,0,0,0,99,0.2,0,0
2023,6,27,1,60,9,25.0,23.8,93.0,101325,0,0,0,0,0,0,0,0,0,0,0,8.2,0,0,9999,77777,9,999999999,0,0,0,99,0.2,0,0
2023,6,27,2,60,9,25.9,24.2,91.0,101325,0,0,0,0,0,0,0,0,0,0,0,6.5,0,0,9999,77777,9,999999999,0,0,0,99,0.2,0,0
2023,6,27,3,60,9,26.1,24.5,91.0,101325,0,0,0,0,0,0,0,0,0,0,0,10.8,0,0,9999,77777,9,999999999,0,0,0,99,0.2,0,0
2023,6,27,4,60,9,26.6,24.4,88.0,101325,0,0,0,0,0,0,0,0,0,0,0,12.8,0,0,9999,77777,9,999999999,0,0,0,99,0.2,0,0
2023,6,27,5,60,9,26.9,24.4,86.0,101325,0,0,0,0,0,0,0,0,0,0,0,12.7,0,0,9999,77777,9,999999999,0,0,0,99,0.2,0,0
2023,6,27,6,60,9,27.1,24.8,87.0,101325,0,0,0,0,0,0,0,0,0,0,0,13.0,0,0,9999,77777,9,999999999,0,0,0,99,0.2,0,0
2023,6,27,7,60,9,25.4,24.0,92.0,101325,0,0,0,0,0,0,0,0,0,0,0,20.9,0,0,9999,77777,9,999999999,0,0,0,99,0.2,0,0
2023,6,27,8,60,9,26.2,24.3,89.0,101325,0,0,0,0,0,0,0,0,0,0,0,15.0,0,0,9999,77777,9,999999999,0,0,0,99,0.2,0,0
2023,6,27,9,60,9,26.6,24.1,86.0,101325,0,0,0,0,0,0,0,0,0,0,0,17.3,0,0,9999,77777,9,999999999,0,0,0,99,0.2,0,0
2023,6,27,10,60,9,26.1,24.4,90.0,101325,0,0,0,0,0,0,0,0,0,0,0,16.8,0,0,9999,77777,9,999999999,0,0,0,99,0.2,0,0
2023,6,27,11,60,9,26.5,24.1,87.0,101325,0,0,0,0,0,0,0,0,0,0,0,18.8,0,0,9999,77777,9,999999999,0,0,0,99,0.2,0,0
2023,6,27,12,60,9,25.7,24.3,92.0,101325,0,0,0,0,0,0,0,0,0,0,0,17.1,0,0,9999,77777,9,999999999,0,0,0,99,0.2,0,0
2023,6,27,13,60,9,25.8,24.3,91.0,101325,0,0,0,0,0,0,0,0,0,0,0,11.5,0,0,9999,77777,9,999999999,0,0,0,99,0.2,0,0
2023,6,27,14,60,9,26.0,24.6,92.0,101325,0,0,0,0,0,0,0,0,0,0,0,9.7,0,0,9999,77777,9,999999999,0,0,0,99,0.2,0,0
2023,6,27,15,60,9,25.7,24.4,93.0,101325,0,0,0,0,0,0,0,0,0,0,0,11.8,0,0,9999,77777,9,999999999,0,0,0,99,0.2,0,0
2023,6,27,16,60,9,26.1,24.5,91.0,101325,0,0,0,0,0,0,0,0,0,0,0,13.8,0,0,9999,77777,9,999999999,0,0,0,99,0.2,0,0
2023,6,27,17,60,9,26.1,24.7,92.0,101325,0,0,0,0,0,0,0,0,0,0,0,10.7,0,0,9999,77777,9,999999999,0,0,0,99,0.2,0,0
2023,6,27,18,60,9,26.3,24.8,92.0,101325,0,0,0,0,0,0,0,0,0,0,0,10.4,0,0,9999,77777,9,999999999,0,0,0,99,0.2,0,0
2023,6,27,19,60,9,26.1,24.6,91.0,101325,0,0,0,0,0,0,0,0,0,0,0,13.8,0,0,9999,77777,9,999999999,0,0,0,99,0.2,0,0
2023,6,27,20,60,9,25.8,24.4,92.0,101325,0,0,0,0,0,0,0,0,0,0,0,14.7,0,0,9999,77777,9,999999999,0,0,0,99,0.2,0,0
2023,6,27,21,60,9,25.7,24.4,92.0,101325,0,0,0,0,0,0,0,0,0,0,0,13.6,0,0,9999,77777,9,999999999,0,0,0,99,0.2,0,0
2023,6,27,22,60,9,25.8,24.4,92.0,101325,0,0,0,0,0,0,0,0,0,0,0,17.1,0,0,9999,77777,9,999999999,0,0,0,99,0.2,0,0
2023,6,27,23,60,9,25.7,24.2,91.0,101325,0,0,0,0,0,0,0,0,0,0,0,15.1,0,0,9999,77777,9,999999999,0,0,0,99,0.2,0,0
2023,6,27,24,60,9,26.1,24.4,90.0,101325,0,0,0,0,0,0,0,0,0,0,0,16.4,0,0,9999,77777,9,999999999,0,0,0,99,0.2,0,0
2023,6,28,1,60,9,26.2,24.6,91.0,101325,0,0,0,0,0,0,0,0,0,0,0,15.1,0,0,9999,77777,9,999999999,0,0,0,99,0.2,0,0
2023,6,28,2,60,9,26.0,24.6,92.0,101325,0,0,0,0,0,0,0,0,0,0,0,14.5,0,0,9999,77777,9,999999999,0,0,0,99,0.2,0,0
2023,6,28,3,60,9,26.7,24.8,90.0,101325,0,0,0,0,0,0,0,0,0,0,0,13.7,0,0,9999,77777,9,999999999,0,0,0,99,0.2,0,0
2023,6,28,4,60,9,26.0,24.2,90.0,101325,0,0,0,0,0,0,0,0,0,0,0,15.7,0,0,9999,77777,9,999999999,0,0,0,99,0.2,0,0
2023,6,28,5,60,9,26.4,25.0,92.0,101325,0,0,0,0,0,0,0,0,0,0,0,10.6,0,0,9999,77777,9,999999999,0,0,0,99,0.2,0,0
2023,6,28,6,60,9,26.5,25.0,92.0,101325,0,0,0,0,0,0,0,0,0,0,0,16.6,0,0,9999,77777,9,999999999,0,0,0,99,0.2,0,0
2023,6,28,7,60,9,26.9,24.8,88.0,101325,0,0,0,0,0,0,0,0,0,0,0,15.9,0,0,9999,77777,9,999999999,0,0,0,99,0.2,0,0
2023,6,28,8,60,9,27.8,24.9,84.0,101325,0,0,0,0,0,0,0,0,0,0,0,15.1,0,0,9999,77777,9,999999999,0,0,0,99,0.2,0,0
2023,6,28,9,60,9,27.5,24.4,83.0,101325,0,0,0,0,0,0,0,0,0,0,0,19.4,0,0,9999,77777,9,999999999,0,0,0,99,0.2,0,0
2023,6,28,10,60,9,26.7,24.1,85.0,101325,0,0,0,0,0,0,0,0,0,0,0,20.4,0,0,9999,77777,9,999999999,0,0,0,99,0.2,0,0
2023,6,28,11,60,9,26.4,24.6,90.0,101325,0,0,0,0,0,0,0,0,0,0,0,15.5,0,0,9999,77777,9,999999999,0,0,0,99,0.2,0,0
2023,6,28,12,60,9,26.5,24.4,88.0,101325,0,0,0,0,0,0,0,0,0,0,0,19.8,0,0,9999,77777,9,999999999,0,0,0,99,0.2,0,0
2023,6,28,13,60,9,26.5,24.7,90.0,101325,0,0,0,0,0,0,0,0,0,0,0,15.3,0,0,9999,77777,9,999999999,0,0,0,99,0.2,0,0
2023,6,28,14,60,9,26.2,24.9,92.0,101325,0,0,0,0,0,0,0,0,0,0,0,13.7,0,0,9999,77777,9,999999999,0,0,0,99,0.2,0,0
2023,6,28,15,60,9,26.3,24.6,90.0,101325,0,0,0,0,0,0,0,0,0,0,0,12.9,0,0,9999,77777,9,999999999,0,0,0,99,0.2,0,0
2023,6,28,16,60,9,26.3,24.8,92.0,101325,0,0,0,0,0,0,0,0,0,0,0,13.8,0,0,9999,77777,9,999999999,0,0,0,99,0.2,0,0
2023,6,28,17,60,9,26.4,24.9,92.0,101325,0,0,0,0,0,0,0,0,0,0,0,15.8,0,0,9999,77777,9,999999999,0,0,0,99,0.2,0,0
2023,6,28,18,60,9,25.9,24.6,93.0,101325,0,0,0,0,0,0,0,0,0,0,0,18.6,0,0,9999,77777,9,999999999,0,0,0,99,0.2,0,0
2023,6,28,19,60,9,25.6,24.1,91.0,101325,0,0,0,0,0,0,0,0,0,0,0,15.0,0,0,9999,77777,9,999999999,0,0,0,99,0.2,0,0
2023,6,28,20,60,9,25.7,24.4,93.0,101325,0,0,0,0,0,0,0,0,0,0,0,16.4,0,0,9999,77777,9,999999999,0,0,0,99,0.2,0,0
2023,6,28,21,60,9,25.8,24.4,92.0,101325,0,0,0,0,0,0,0,0,0,0,0,16.7,0,0,9999,77777,9,999999999,0,0,0,99,0.2,0,0
2023,6,28,22,60,9,26.1,24.4,90.0,101325,0,0,0,0,0,0,0,0,0,0,0,16.3,0,0,9999,77777,9,999999999,0,0,0,99,0.2,0,0
2023,6,28,23,60,9,25.9,24.6,92.0,101325,0,0,0,0,0,0,0,0,0,0,0,12.9,0,0,9999,77777,9,999999999,0,0,0,99,0.2,0,0
2023,6,28,24,60,9,25.4,24.1,92.0,101325,0,0,0,0,0,0,0,0,0,0,0,11.8,0,0,9999,77777,9,999999999,0,0,0,99,0.2,0,0
2023,6,29,1,60,9,25.8,24.5,93.0,101325,0,0,0,0,0,0,0,0,0,0,0,19.0,0,0,9999,77777,9,999999999,0,0,0,99,0.2,0,0
2023,6,29,2,60,9,26.0,24.6,92.0,101325,0,0,0,0,0,0,0,0,0,0,0,16.6,0,0,9999,77777,9,999999999,0,0,0,99,0.2,0,0
2023,6,29,3,60,9,26.5,24.6,90.0,101325,0,0,0,0,0,0,0,0,0,0,0,14.2,0,0,9999,77777,9,999999999,0,0,0,99,0.2,0,0
2023,6,29,4,60,9,25.9,24.4,91.0,101325,0,0,0,0,0,0,0,0,0,0,0,15.3,0,0,9999,77777,9,999999999,0,0,0,99,0.2,0,0
2023,6,29,5,60,9,25.9,24.5,92.0,101325,0,0,0,0,0,0,0,0,0,0,0,16.5,0,0,9999,77777,9,999999999,0,0,0,99,0.2,0,0
2023,6,29,6,60,9,25.6,24.2,92.0,101325,0,0,0,0,0,0,0,0,0,0,0,10.9,0,0,9999,77777,9,999999999,0,0,0,99,0.2,0,0
2023,6,29,7,60,9,26.4,24.9,91.0,101325,0,0,0,0,0,0,0,0,0,0,0,14.8,0,0,9999,77777,9,999999999,0,0,0,99,0.2,0,0
2023,6,29,8,60,9,26.6,24.5,88.0,101325,0,0,0,0,0,0,0,0,0,0,0,16.6,0,0,9999,77777,9,999999999,0,0,0,99,0.2,0,0
2023,6,29,9,60,9,26.5,24.2,87.0,101325,0,0,0,0,0,0,0,0,0,0,0,20.5,0,0,9999,77777,9,999999999,0,0,0,99,0.2,0,0
2023,6,29,10,60,9,25.9,24.6,93.0,101325,0,0,0,0,0,0,0,0,0,0,0,17.8,0,0,9999,77777,9,999999999,0,0,0,99,0.2,0,0
2023,6,29,11,60,9,26.8,25.1,91.0,101325,0,0,0,0,0,0,0,0,0,0,0,17.4,0,0,9999,77777,9,999999999,0,0,0,99,0.2,0,0
2023,6,29,12,60,9,26.1,24.9,93.0,101325,0,0,0,0,0,0,0,0,0,0,0,19.7,0,0,9999,77777,9,999999999,0,0,0,99,0.2,0,0
2023,6,29,13,60,9,26.3,24.0,87.0,101325,0,0,0,0,0,0,0,0,0,0,0,19.2,0,0,9999,77777,9,999999999,0,0,0,99,0.2,0,0
2023,6,29,14,60,9,26.5,24.1,87.0,101325,0,0,0,0,0,0,0,0,0,0,0,18.0,0,0,9999,77777,9,999999999,0,0,0,99,0.2,0,0
2023,6,29,15,60,9,25.7,24.3,92.0,101325,0,0,0,0,0,0,0,0,0,0,0,16.4,0,0,9999,77777,9,999999999,0,0,0,99,0.2,0,0
2023,6,29,16,60,9,25.8,24.3,91.0,101325,0,0,0,0,0,0,0,0,0,0,0,17.1,0,0,9999,77777,9,999999999,0,0,0,99,0.2,0,0
2023,6,29,17,60,9,26.0,24.4,91.0,101325,0,0,0,0,0,0,0,0,0,0,0,15.3,0,0,9999,77777,9,999999999,0,0,0,99,0.2,0,0
2023,6,29,18,60,9,25.9,24.7,93.0,101325,0,0,0,0,0,0,0,0,0,0,0,19.7,0,0,9999,77777,9,999999999,0,0,0,99,0.2,0,0
2023,6,29,19,60,9,25.6,24.4,93.0,101325,0,0,0,0,0,0,0,0,0,0,0,17.4,0,0,9999,77777,9,999999999,0,0,0,99,0.2,0,0
2023,6,29,20,60,9,25.5,24.1,92.0,101325,0,0,0,0,0,0,0,0,0,0,0,18.4,0,0,9999,77777,9,999999999,0,0,0,99,0.2,0,0
2023,6,29,21,60,9,25.7,24.3,92.0,101325,0,0,0,0,0,0,0,0,0,0,0,15.6,0,0,9999,77777,9,999999999,0,0,0,99,0.2,0,0
2023,6,29,22,60,9,25.5,24.1,92.0,101325,0,0,0,0,0,0,0,0,0,0,0,16.9,0,0,9999,77777,9,999999999,0,0,0,99,0.2,0,0
2023,6,29,23,60,9,25.3,23.8,91.0,101325,0,0,0,0,0,0,0,0,0,0,0,18.8,0,0,9999,77777,9,999999999,0,0,0,99,0.2,0,0
2023,6,29,24,60,9,25.8,24.3,91.0,101325,0,0,0,0,0,0,0,0,0,0,0,20.1,0,0,9999,77777,9,999999999,0,0,0,99,0.2,0,0
2023,6,30,1,60,9,26.0,24.5,91.0,101325,0,0,0,0,0,0,0,0,0,0,0,17.2,0,0,9999,77777,9,999999999,0,0,0,99,0.2,0,0
2023,6,30,2,60,9,26.1,24.7,92.0,101325,0,0,0,0,0,0,0,0,0,0,0,21.1,0,0,9999,77777,9,999999999,0,0,0,99,0.2,0,0
2023,6,30,3,60,9,26.3,24.5,90.0,101325,0,0,0,0,0,0,0,0,0,0,0,22.5,0,0,9999,77777,9,999999999,0,0,0,99,0.2,0,0
2023,6,30,4,60,9,25.8,24.3,91.0,101325,0,0,0,0,0,0,0,0,0,0,0,22.6,0,0,9999,77777,9,999999999,0,0,0,99,0.2,0,0
2023,6,30,5,60,9,25.7,24.3,92.0,101325,0,0,0,0,0,0,0,0,0,0,0,18.3,0,0,9999,77777,9,999999999,0,0,0,99,0.2,0,0
2023,6,30,6,60,9,26.6,24.8,90.0,101325,0,0,0,0,0,0,0,0,0,0,0,21.9,0,0,9999,77777,9,999999999,0,0,0,99,0.2,0,0
2023,6,30,7,60,9,26.6,24.3,87.0,101325,0,0,0,0,0,0,0,0,0,0,0,23.0,0,0,9999,77777,9,999999999,0,0,0,99,0.2,0,0
2023,6,30,8,60,9,26.8,24.5,88.0,101325,0,0,0,0,0,0,0,0,0,0,0,25.3,0,0,9999,77777,9,999999999,0,0,0,99,0.2,0,0
2023,6,30,9,60,9,26.4,24.2,88.0,101325,0,0,0,0,0,0,0,0,0,0,0,27.3,0,0,9999,77777,9,999999999,0,0,0,99,0.2,0,0
2023,6,30,10,60,9,25.8,24.3,92.0,101325,0,0,0,0,0,0,0,0,0,0,0,24.9,0,0,9999,77777,9,999999999,0,0,0,99,0.2,0,0
2023,6,30,11,60,9,26.7,24.8,89.0,101325,0,0,0,0,0,0,0,0,0,0,0,23.5,0,0,9999,77777,9,999999999,0,0,0,99,0.2,0,0
2023,6,30,12,60,9,26.5,24.8,90.0,101325,0,0,0,0,0,0,0,0,0,0,0,21.1,0,0,9999,77777,9,999999999,0,0,0,99,0.2,0,0
2023,6,30,13,60,9,26.1,24.4,90.0,101325,0,0,0,0,0,0,0,0,0,0,0,23.4,0,0,9999,77777,9,999999999,0,0,0,99,0.2,0,0
2023,6,30,14,60,9,26.3,24.7,91.0,101325,0,0,0,0,0,0,0,0,0,0,0,22.4,0,0,9999,77777,9,999999999,0,0,0,99,0.2,0,0
2023,6,30,15,60,9,26.4,25.0,92.0,101325,0,0,0,0,0,0,0,0,0,0,0,17.0,0,0,9999,77777,9,999999999,0,0,0,99,0.2,0,0
2023,6,30,16,60,9,25.8,24.7,93.0,101325,0,0,0,0,0,0,0,0,0,0,0,18.5,0,0,9999,77777,9,999999999,0,0,0,99,0.2,0,0
2023,6,30,17,60,9,26.4,24.9,92.0,101325,0,0,0,0,0,0,0,0,0,0,0,16.9,0,0,9999,77777,9,999999999,0,0,0,99,0.2,0,0
2023,6,30,18,60,9,26.1,24.6,91.0,101325,0,0,0,0,0,0,0,0,0,0,0,19.8,0,0,9999,77777,9,999999999,0,0,0,99,0.2,0,0
2023,6,30,19,60,9,26.0,24.4,91.0,101325,0,0,0,0,0,0,0,0,0,0,0,20.2,0,0,9999,77777,9,999999999,0,0,0,99,0.2,0,0
2023,6,30,20,60,9,26.0,24.3,90.0,101325,0,0,0,0,0,0,0,0,0,0,0,18.1,0,0,9999,77777,9,999999999,0,0,0,99,0.2,0,0
2023,6,30,21,60,9,25.7,24.4,93.0,101325,0,0,0,0,0,0,0,0,0,0,0,15.5,0,0,9999,77777,9,999999999,0,0,0,99,0.2,0,0
2023,6,30,22,60,9,25.6,24.2,92.0,101325,0,0,0,0,0,0,0,0,0,0,0,13.8,0,0,9999,77777,9,999999999,0,0,0,99,0.2,0,0
2023,6,30,23,60,9,24.9,23.8,94.0,101325,0,0,0,0,0,0,0,0,0,0,0,19.7,0,0,9999,77777,9,999999999,0,0,0,99,0.2,0,0
2023,6,30,24,60,9,25.7,24.5,93.0,101325,0,0,0,0,0,0,0,0,0,0,0,14.4,0,0,9999,77777,9,999999999,0,0,0,99,0.2,0,0
2023,7,1,1,60,9,25.8,24.5,92.0,101325,0,0,0,0,0,0,0,0,0,0,0,14.7,0,0,9999,77777,9,999999999,0,0,0,99,0.2,0,0
2023,7,1,2,60,9,26.0,24.8,93.0,101325,0,0,0,0,0,0,0,0,0,0,0,15.4,0,0,9999,77777,9,999999999,0,0,0,99,0.2,0,0
2023,7,1,3,60,9,25.7,24.4,93.0,101325,0,0,0,0,0,0,0,0,0,0,0,18.0,0,0,9999,77777,9,999999999,0,0,0,99,0.2,0,0
2023,7,1,4,60,9,25.6,24.4,93.0,101325,0,0,0,0,0,0,0,0,0,0,0,19.3,0,0,9999,77777,9,999999999,0,0,0,99,0.2,0,0
2023,7,1,5,60,9,25.8,24.4,92.0,101325,0,0,0,0,0,0,0,0,0,0,0,19.7,0,0,9999,77777,9,999999999,0,0,0,99,0.2,0,0
2023,7,1,6,60,9,26.2,24.6,91.0,101325,0,0,0,0,0,0,0,0,0,0,0,18.9,0,0,9999,77777,9,999999999,0,0,0,99,0.2,0,0
2023,7,1,7,60,9,27.1,25.0,88.0,101325,0,0,0,0,0,0,0,0,0,0,0,21.0,0,0,9999,77777,9,999999999,0,0,0,99,0.2,0,0
2023,7,1,8,60,9,28.0,25.1,85.0,101325,0,0,0,0,0,0,0,0,0,0,0,21.3,0,0,9999,77777,9,999999999,0,0,0,99,0.2,0,0
2023,7,1,9,60,9,28.2,24.8,82.0,101325,0,0,0,0,0,0,0,0,0,0,0,21.4,0,0,9999,77777,9,999999999,0,0,0,99,0.2,0,0
2023,7,1,10,60,9,27.7,25.0,85.0,101325,0,0,0,0,0,0,0,0,0,0,0,19.6,0,0,9999,77777,9,999999999,0,0,0,99,0.2,0,0
2023,7,1,11,60,9,27.2,23.9,82.0,101325,0,0,0,0,0,0,0,0,0,0,0,23.1,0,0,9999,77777,9,999999999,0,0,0,99,0.2,0,0
2023,7,1,12,60,9,27.8,24.2,81.0,101325,0,0,0,0,0,0,0,0,0,0,0,22.4,0,0,9999,77777,9,999999999,0,0,0,99,0.2,0,0
2023,7,1,13,60,9,26.9,24.9,89.0,101325,0,0,0,0,0,0,0,0,0,0,0,16.1,0,0,9999,77777,9,999999999,0,0,0,99,0.2,0,0
2023,7,1,14,60,9,26.7,25.0,90.0,101325,0,0,0,0,0,0,0,0,0,0,0,14.5,0,0,9999,77777,9,999999999,0,0,0,99,0.2,0,0
2023,7,1,15,60,9,26.4,24.6,90.0,101325,0,0,0,0,0,0,0,0,0,0,0,13.4,0,0,9999,77777,9,999999999,0,0,0,99,0.2,0,0
2023,7,1,16,60,9,25.6,24.3,93.0,101325,0,0,0,0,0,0,0,0,0,0,0,15.6,0,0,9999,77777,9,999999999,0,0,0,99,0.2,0,0
2023,7,1,17,60,9,26.0,24.7,93.0,101325,0,0,0,0,0,0,0,0,0,0,0,15.0,0,0,9999,77777,9,999999999,0,0,0,99,0.2,0,0
2023,7,1,18,60,9,25.6,24.4,93.0,101325,0,0,0,0,0,0,0,0,0,0,0,12.9,0,0,9999,77777,9,999999999,0,0,0,99,0.2,0,0
2023,7,1,19,60,9,25.5,24.4,94.0,101325,0,0,0,0,0,0,0,0,0,0,0,11.3,0,0,9999,77777,9,999999999,0,0,0,99,0.2,0,0
2023,7,1,20,60,9,25.5,24.3,93.0,101325,0,0,0,0,0,0,0,0,0,0,0,16.5,0,0,9999,77777,9,999999999,0,0,0,99,0.2,0,0
2023,7,1,21,60,9,25.7,24.3,92.0,101325,0,0,0,0,0,0,0,0,0,0,0,13.0,0,0,9999,77777,9,999999999,0,0,0,99,0.2,0,0
2023,7,1,22,60,9,25.4,24.3,93.0,101325,0,0,0,0,0,0,0,0,0,0,0,17.1,0,0,9999,77777,9,999999999,0,0,0,99,0.2,0,0
2023,7,1,23,60,9,26.4,24.2,88.0,101325,0,0,0,0,0,0,0,0,0,0,0,18.1,0,0,9999,77777,9,999999999,0,0,0,99,0.2,0,0
2023,7,1,24,60,9,25.7,24.4,93.0,101325,0,0,0,0,0,0,0,0,0,0,0,17.8,0,0,9999,77777,9,999999999,0,0,0,99,0.2,0,0
2023,7,2,1,60,9,25.9,24.6,92.0,101325,0,0,0,0,0,0,0,0,0,0,0,15.2,0,0,9999,77777,9,999999999,0,0,0,99,0.2,0,0
2023,7,2,2,60,9,25.8,24.5,92.0,101325,0,0,0,0,0,0,0,0,0,0,0,15.5,0,0,9999,77777,9,999999999,0,0,0,99,0.2,0,0
2023,7,2,3,60,9,26.1,24.7,92.0,101325,0,0,0,0,0,0,0,0,0,0,0,16.3,0,0,9999,77777,9,999999999,0,0,0,99,0.2,0,0
2023,7,2,4,60,9,26.9,24.3,86.0,101325,0,0,0,0,0,0,0,0,0,0,0,19.4,0,0,9999,77777,9,999999999,0,0,0,99,0.2,0,0
2023,7,2,5,60,9,27.8,24.8,84.0,101325,0,0,0,0,0,0,0,0,0,0,0,18.4,0,0,9999,77777,9,999999999,0,0,0,99,0.2,0,0
2023,7,2,6,60,9,28.2,24.9,82.0,101325,0,0,0,0,0,0,0,0,0,0,0,16.9,0,0,9999,77777,9,999999999,0,0,0,99,0.2,0,0
2023,7,2,7,60,9,27.8,24.2,81.0,101325,0,0,0,0,0,0,0,0,0,0,0,20.5,0,0,9999,77777,9,999999999,0,0,0,99,0.2,0,0
2023,7,2,8,60,9,28.3,24.9,82.0,101325,0,0,0,0,0,0,0,0,0,0,0,20.0,0,0,9999,77777,9,999999999,0,0,0,99,0.2,0,0
2023,7,2,9,60,9,28.4,25.1,83.0,101325,0,0,0,0,0,0,0,0,0,0,0,18.0,0,0,9999,77777,9,999999999,0,0,0,99,0.2,0,0
2023,7,2,10,60,9,28.1,24.7,82.0,101325,0,0,0,0,0,0,0,0,0,0,0,20.5,0,0,9999,77777,9,999999999,0,0,0,99,0.2,0,0
2023,7,2,11,60,9,28.0,25.0,84.0,101325,0,0,0,0,0,0,0,0,0,0,0,16.4,0,0,9999,77777,9,999999999,0,0,0,99,0.2,0,0
2023,7,2,12,60,9,27.8,24.8,84.0,101325,0,0,0,0,0,0,0,0,0,0,0,16.8,0,0,9999,77777,9,999999999,0,0,0,99,0.2,0,0
2023,7,2,13,60,9,26.4,24.9,91.0,101325,0,0,0,0,0,0,0,0,0,0,0,13.0,0,0,9999,77777,9,999999999,0,0,0,99,0.2,0,0
2023,7,2,14,60,9,25.9,24.9,95.0,101325,0,0,0,0,0,0,0,0,0,0,0,14.3,0,0,9999,77777,9,999999999,0,0,0,99,0.2,0,0
2023,7,2,15,60,9,26.1,24.9,93.0,101325,0,0,0,0,0,0,0,0,0,0,0,8.4,0,0,9999,77777,9,999999999,0,0,0,99,0.2,0,0
2023,7,2,16,60,9,25.9,24.8,94.0,101325,0,0,0,0,0,0,0,0,0,0,0,11.8,0,0,9999,77777,9,999999999,0,0,0,99,0.2,0,0
2023,7,2,17,60,9,26.3,24.7,91.0,101325,0,0,0,0,0,0,0,0,0,0,0,12.2,0,0,9999,77777,9,999999999,0,0,0,99,0.2,0,0
2023,7,2,18,60,9,26.1,24.7,92.0,101325,0,0,0,0,0,0,0,0,0,0,0,14.9,0,0,9999,77777,9,999999999,0,0,0,99,0.2,0,0
2023,7,2,19,60,9,26.2,24.6,91.0,101325,0,0,0,0,0,0,0,0,0,0,0,13.5,0,0,9999,77777,9,999999999,0,0,0,99,0.2,0,0
2023,7,2,20,60,9,26.2,24.6,91.0,101325,0,0,0,0,0,0,0,0,0,0,0,13.9,0,0,9999,77777,9,999999999,0,0,0,99,0.2,0,0
2023,7,2,21,60,9,26.2,24.5,91.0,101325,0,0,0,0,0,0,0,0,0,0,0,15.2,0,0,9999,77777,9,999999999,0,0,0,99,0.2,0,0
2023,7,2,22,60,9,26.1,24.7,92.0,101325,0,0,0,0,0,0,0,0,0,0,0,16.6,0,0,9999,77777,9,999999999,0,0,0,99,0.2,0,0
2023,7,2,23,60,9,26.1,24.5,91.0,101325,0,0,0,0,0,0,0,0,0,0,0,15.9,0,0,9999,77777,9,999999999,0,0,0,99,0.2,0,0
2023,7,2,24,60,9,26.1,24.3,90.0,101325,0,0,0,0,0,0,0,0,0,0,0,14.0,0,0,9999,77777,9,999999999,0,0,0,99,0.2,0,0
2023,7,3,1,60,9,26.4,24.5,89.0,101325,0,0,0,0,0,0,0,0,0,0,0,11.3,0,0,9999,77777,9,999999999,0,0,0,99,0.2,0,0
2023,7,3,2,60,9,26.4,25.0,92.0,101325,0,0,0,0,0,0,0,0,0,0,0,12.2,0,0,9999,77777,9,999999999,0,0,0,99,0.2,0,0
2023,7,3,3,60,9,26.9,25.2,90.0,101325,0,0,0,0,0,0,0,0,0,0,0,12.6,0,0,9999,77777,9,999999999,0,0,0,99,0.2,0,0
2023,7,3,4,60,9,26.9,24.8,88.0,101325,0,0,0,0,0,0,0,0,0,0,0,17.0,0,0,9999,77777,9,999999999,0,0,0,99,0.2,0,0
2023,7,3,5,60,9,27.3,25.0,88.0,101325,0,0,0,0,0,0,0,0,0,0,0,15.0,0,0,9999,77777,9,999999999,0,0,0,99,0.2,0,0
2023,7,3,6,60,9,28.1,25.3,85.0,101325,0,0,0,0,0,0,0,0,0,0,0,15.0,0,0,9999,77777,9,999999999,0,0,0,99,0.2,0,0
2023,7,3,7,60,9,27.6,25.3,87.0,101325,0,0,0,0,0,0,0,0,0,0,0,12.8,0,0,9999,77777,9,999999999,0,0,0,99,0.2,0,0
2023,7,3,8,60,9,28.9,25.2,80.0,101325,0,0,0,0,0,0,0,0,0,0,0,17.5,0,0,9999,77777,9,999999999,0,0,0,99,0.2,0,0
2023,7,3,9,60,9,28.6,25.4,83.0,101325,0,0,0,0,0,0,0,0,0,0,0,14.8,0,0,9999,77777,9,999999999,0,0,0,99,0.2,0,0
2023,7,3,10,60,9,28.9,25.3,81.0,101325,0,0,0,0,0,0,0,0,0,0,0,17.7,0,0,9999,77777,9,999999999,0,0,0,99,0.2,0,0
2023,7,3,11,60,9,28.9,25.5,82.0,101325,0,0,0,0,0,0,0,0,0,0,0,16.0,0,0,9999,77777,9,999999999,0,0,0,99,0.2,0,0
2023,7,3,12,60,9,28.9,25.4,81.0,101325,0,0,0,0,0,0,0,0,0,0,0,13.7,0,0,9999,77777,9,999999999,0,0,0,99,0.2,0,0
2023,7,3,13,60,9,27.5,25.4,88.0,101325,0,0,0,0,0,0,0,0,0,0,0,16.6,0,0,9999,77777,9,999999999,0,0,0,99,0.2,0,0
2023,7,3,14,60,9,26.9,25.2,90.0,101325,0,0,0,0,0,0,0,0,0,0,0,12.6,0,0,9999,77777,9,999999999,0,0,0,99,0.2,0,0
2023,7,3,15,60,9,26.9,25.2,90.0,101325,0,0,0,0,0,0,0,0,0,0,0,9.7,0,0,9999,77777,9,999999999,0,0,0,99,0.2,0,0
2023,7,3,16,60,9,26.9,25.1,90.0,101325,0,0,0,0,0,0,0,0,0,0,0,9.4,0,0,9999,77777,9,999999999,0,0,0,99,0.2,0,0
2023,7,3,17,60,9,26.8,25.1,91.0,101325,0,0,0,0,0,0,0,0,0,0,0,5.4,0,0,9999,77777,9,999999999,0,0,0,99,0.2,0,0
2023,7,3,18,60,9,26.7,25.4,93.0,101325,0,0,0,0,0,0,0,0,0,0,0,4.2,0,0,9999,77777,9,999999999,0,0,0,99,0.2,0,0
2023,7,3,19,60,9,26.3,25.3,94.0,101325,0,0,0,0,0,0,0,0,0,0,0,8.8,0,0,9999,77777,9,999999999,0,0,0,99,0.2,0,0
2023,7,3,20,60,9,26.2,25.0,93.0,101325,0,0,0,0,0,0,0,0,0,0,0,9.7,0,0,9999,77777,9,999999999,0,0,0,99,0.2,0,0
2023,7,3,21,60,9,26.0,24.9,93.0,101325,0,0,0,0,0,0,0,0,0,0,0,9.5,0,0,9999,77777,9,999999999,0,0,0,99,0.2,0,0
2023,7,3,22,60,9,26.0,24.9,94.0,101325,0,0,0,0,0,0,0,0,0,0,0,9.8,0,0,9999,77777,9,999999999,0,0,0,99,0.2,0,0
2023,7,3,23,60,9,26.2,25.1,94.0,101325,0,0,0,0,0,0,0,0,0,0,0,8.4,0,0,9999,77777,9,999999999,0,0,0,99,0.2,0,0
2023,7,3,24,60,9,25.9,25.1,95.0,101325,0,0,0,0,0,0,0,0,0,0,0,9.4,0,0,9999,77777,9,999999999,0,0,0,99,0.2,0,0
2023,7,4,1,60,9,26.3,25.0,93.0,101325,0,0,0,0,0,0,0,0,0,0,0,10.1,0,0,9999,77777,9,999999999,0,0,0,99,0.2,0,0
2023,7,4,2,60,9,26.5,25.0,91.0,101325,0,0,0,0,0,0,0,0,0,0,0,12.9,0,0,9999,77777,9,999999999,0,0,0,99,0.2,0,0
2023,7,4,3,60,9,25.4,24.3,94.0,101325,0,0,0,0,0,0,0,0,0,0,0,13.4,0,0,9999,77777,9,999999999,0,0,0,99,0.2,0,0
2023,7,4,4,60,9,25.8,24.3,92.0,101325,0,0,0,0,0,0,0,0,0,0,0,9.0,0,0,9999,77777,9,999999999,0,0,0,99,0.2,0,0
2023,7,4,5,60,9,27.3,24.7,86.0,101325,0,0,0,0,0,0,0,0,0,0,0,10.7,0,0,9999,77777,9,999999999,0,0,0,99,0.2,0,0
2023,7,4,6,60,9,28.7,25.1,81.0,101325,0,0,0,0,0,0,0,0,0,0,0,13.7,0,0,9999,77777,9,999999999,0,0,0,99,0.2,0,0
2023,7,4,7,60,9,27.8,25.1,85.0,101325,0,0,0,0,0,0,0,0,0,0,0,12.8,0,0,9999,77777,9,999999999,0,0,0,99,0.2,0,0
2023,7,4,8,60,9,28.1,25.3,85.0,101325,0,0,0,0,0,0,0,0,0,0,0,11.5,0,0,9999,77777,9,999999999,0,0,0,99,0.2,0,0
2023,7,4,9,60,9,29.2,25.4,80.0,101325,0,0,0,0,0,0,0,0,0,0,0,13.9,0,0,9999,77777,9,999999999,0,0,0,99,0.2,0,0
2023,7,4,10,60,9,27.8,25.1,85.0,101325,0,0,0,0,0,0,0,0,0,0,0,16.8,0,0,9999,77777,9,999999999,0,0,0,99,0.2,0,0
2023,7,4,11,60,9,28.7,25.0,81.0,101325,0,0,0,0,0,0,0,0,0,0,0,14.9,0,0,9999,77777,9,999999999,0,0,0,99,0.2,0,0
2023,7,4,12,60,9,28.4,24.9,82.0,101325,0,0,0,0,0,0,0,0,0,0,0,15.8,0,0,9999,77777,9,999999999,0,0,0,99,0.2,0,0
2023,7,4,13,60,9,26.8,25.3,92.0,101325,0,0,0,0,0,0,0,0,0,0,0,15.5,0,0,9999,77777,9,999999999,0,0,0,99,0.2,0,0
2023,7,4,14,60,9,26.8,25.1,90.0,101325,0,0,0,0,0,0,0,0,0,0,0,12.6,0,0,9999,77777,9,999999999,0,0,0,99,0.2,0,0
2023,7,4,15,60,9,26.7,25.3,92.0,101325,0,0,0,0,0,0,0,0,0,0,0,9.2,0,0,9999,77777,9,999999999,0,0,0,99,0.2,0,0
2023,7,4,16,60,9,26.5,25.1,92.0,101325,0,0,0,0,0,0,0,0,0,0,0,10.1,0,0,9999,77777,9,999999999,0,0,0,99,0.2,0,0
2023,7,4,17,60,9,26.6,25.3,92.0,101325,0,0,0,0,0,0,0,0,0,0,0,8.7,0,0,9999,77777,9,999999999,0,0,0,99,0.2,0,0
2023,7,4,18,60,9,26.4,25.0,92.0,101325,0,0,0,0,0,0,0,0,0,0,0,9.7,0,0,9999,77777,9,999999999,0,0,0,99,0.2,0,0
2023,7,4,19,60,9,26.6,25.1,91.0,101325,0,0,0,0,0,0,0,0,0,0,0,7.7,0,0,9999,77777,9,999999999,0,0,0,99,0.2,0,0
2023,7,4,20,60,9,26.5,24.9,91.0,101325,0,0,0,0,0,0,0,0,0,0,0,10.9,0,0,9999,77777,9,999999999,0,0,0,99,0.2,0,0
2023,7,4,21,60,9,26.1,24.8,93.0,101325,0,0,0,0,0,0,0,0,0,0,0,9.7,0,0,9999,77777,9,999999999,0,0,0,99,0.2,0,0
2023,7,4,22,60,9,25.9,24.6,93.0,101325,0,0,0,0,0,0,0,0,0,0,0,11.5,0,0,9999,77777,9,999999999,0,0,0,99,0.2,0,0
2023,7,4,23,60,9,26.3,24.5,90.0,101325,0,0,0,0,0,0,0,0,0,0,0,12.7,0,0,9999,77777,9,999999999,0,0,0,99,0.2,0,0
2023,7,4,24,60,9,25.9,24.4,91.0,101325,0,0,0,0,0,0,0,0,0,0,0,10.1,0,0,9999,77777,9,999999999,0,0,0,99,0.2,0,0
2023,7,5,1,60,9,26.1,24.5,91.0,101325,0,0,0,0,0,0,0,0,0,0,0,9.7,0,0,9999,77777,9,999999999,0,0,0,99,0.2,0,0
2023,7,5,2,60,9,26.5,24.7,90.0,101325,0,0,0,0,0,0,0,0,0,0,0,9.0,0,0,9999,77777,9,999999999,0,0,0,99,0.2,0,0
2023,7,5,3,60,9,26.9,25.0,90.0,101325,0,0,0,0,0,0,0,0,0,0,0,10.2,0,0,9999,77777,9,999999999,0,0,0,99,0.2,0,0
2023,7,5,4,60,9,27.8,24.9,84.0,101325,0,0,0,0,0,0,0,0,0,0,0,9.8,0,0,9999,77777,9,999999999,0,0,0,99,0.2,0,0
2023,7,5,5,60,9,28.0,24.9,83.0,101325,0,0,0,0,0,0,0,0,0,0,0,10.4,0,0,9999,77777,9,999999999,0,0,0,99,0.2,0,0
2023,7,5,6,60,9,27.3,24.8,86.0,101325,0,0,0,0,0,0,0,0,0,0,0,12.7,0,0,9999,77777,9,999999999,0,0,0,99,0.2,0,0
2023,7,5,7,60,9,27.6,24.9,86.0,101325,0,0,0,0,0,0,0,0,0,0,0,11.2,0,0,9999,77777,9,999999999,0,0,0,99,0.2,0,0
2023,7,5,8,60,9,28.3,25.2,83.0,101325,0,0,0,0,0,0,0,0,0,0,0,12.2,0,0,9999,77777,9,999999999,0,0,0,99,0.2,0,0
2023,7,5,9,60,9,27.7,24.8,85.0,101325,0,0,0,0,0,0,0,0,0,0,0,14.5,0,0,9999,77777,9,999999999,0,0,0,99,0.2,0,0
2023,7,5,10,60,9,26.9,24.6,87.0,101325,0,0,0,0,0,0,0,0,0,0,0,13.6,0,0,9999,77777,9,999999999,0,0,0,99,0.2,0,0
2023,7,5,11,60,9,27.1,24.6,86.0,101325,0,0,0,0,0,0,0,0,0,0,0,12.3,0,0,9999,77777,9,999999999,0,0,0,99,0.2,0,0
2023,7,5,12,60,9,26.8,24.5,87.0,101325,0,0,0,0,0,0,0,0,0,0,0,11.0,0,0,9999,77777,9,999999999,0,0,0,99,0.2,0,0
2023,7,5,13,60,9,27.4,25.1,87.0,101325,0,0,0,0,0,0,0,0,0,0,0,9.7,0,0,9999,77777,9,999999999,0,0,0,99,0.2,0,0
2023,7,5,14,60,9,26.1,24.7,92.0,101325,0,0,0,0,0,0,0,0,0,0,0,9.8,0,0,9999,77777,9,999999999,0,0,0,99,0.2,0,0
2023,7,5,15,60,9,25.6,24.7,95.0,101325,0,0,0,0,0,0,0,0,0,0,0,6.6,0,0,9999,77777,9,999999999,0,0,0,99,0.2,0,0
2023,7,5,16,60,9,25.2,24.3,95.0,101325,0,0,0,0,0,0,0,0,0,0,0,8.6,0,0,9999,77777,9,999999999,0,0,0,99,0.2,0,0
2023,7,5,17,60,9,25.3,24.5,95.0,101325,0,0,0,0,0,0,0,0,0,0,0,8.1,0,0,9999,77777,9,999999999,0,0,0,99,0.2,0,0
2023,7,5,18,60,9,25.4,24.6,95.0,101325,0,0,0,0,0,0,0,0,0,0,0,7.3,0,0,9999,77777,9,999999999,0,0,0,99,0.2,0,0
2023,7,5,19,60,9,25.4,24.7,96.0,101325,0,0,0,0,0,0,0,0,0,0,0,8.1,0,0,9999,77777,9,999999999,0,0,0,99,0.2,0,0
2023,7,5,20,60,9,25.2,24.5,96.0,101325,0,0,0,0,0,0,0,0,0,0,0,7.7,0,0,9999,77777,9,999999999,0,0,0,99,0.2,0,0
2023,7,5,21,60,9,25.1,24.4,96.0,101325,0,0,0,0,0,0,0,0,0,0,0,6.7,0,0,9999,77777,9,999999999,0,0,0,99,0.2,0,0
2023,7,5,22,60,9,25.1,24.4,96.0,101325,0,0,0,0,0,0,0,0,0,0,0,5.8,0,0,9999,77777,9,999999999,0,0,0,99,0.2,0,0
2023,7,5,23,60,9,25.2,24.4,95.0,101325,0,0,0,0,0,0,0,0,0,0,0,6.1,0,0,9999,77777,9,999999999,0,0,0,99,0.2,0,0
2023,7,5,24,60,9,25.1,24.3,95.0,101325,0,0,0,0,0,0,0,0,0,0,0,5.1,0,0,9999,77777,9,999999999,0,0,0,99,0.2,0,0
2023,7,6,1,60,9,24.9,24.2,96.0,101325,0,0,0,0,0,0,0,0,0,0,0,5.1,0,0,9999,77777,9,999999999,0,0,0,99,0.2,0,0
2023,7,6,2,60,9,25.0,24.3,96.0,101325,0,0,0,0,0,0,0,0,0,0,0,4.1,0,0,9999,77777,9,999999999,0,0,0,99,0.2,0,0
2023,7,6,3,60,9,25.1,24.3,95.0,101325,0,0,0,0,0,0,0,0,0,0,0,7.0,0,0,9999,77777,9,999999999,0,0,0,99,0.2,0,0
2023,7,6,4,60,9,24.9,24.4,97.0,101325,0,0,0,0,0,0,0,0,0,0,0,9.4,0,0,9999,77777,9,999999999,0,0,0,99,0.2,0,0
2023,7,6,5,60,9,25.2,24.2,94.0,101325,0,0,0,0,0,0,0,0,0,0,0,8.1,0,0,9999,77777,9,999999999,0,0,0,99,0.2,0,0
2023,7,6,6,60,9,26.2,24.7,91.0,101325,0,0,0,0,0,0,0,0,0,0,0,7.8,0,0,9999,77777,9,999999999,0,0,0,99,0.2,0,0
2023,7,6,7,60,9,26.4,25.0,92.0,101325,0,0,0,0,0,0,0,0,0,0,0,13.8,0,0,9999,77777,9,999999999,0,0,0,99,0.2,0,0
2023,7,6,8,60,9,26.2,24.5,90.0,101325,0,0,0,0,0,0,0,0,0,0,0,17.9,0,0,9999,77777,9,999999999,0,0,0,99,0.2,0,0
2023,7,6,9,60,9,26.3,25.2,93.0,101325,0,0,0,0,0,0,0,0,0,0,0,19.9,0,0,9999,77777,9,999999999,0,0,0,99,0.2,0,0
2023,7,6,10,60,9,25.8,24.5,92.0,101325,0,0,0,0,0,0,0,0,0,0,0,21.2,0,0,9999,77777,9,999999999,0,0,0,99,0.2,0,0
2023,7,6,11,60,9,26.1,24.4,91.0,101325,0,0,0,0,0,0,0,0,0,0,0,24.5,0,0,9999,77777,9,999999999,0,0,0,99,0.2,0,0
2023,7,6,12,60,9,25.6,24.5,93.0,101325,0,0,0,0,0,0,0,0,0,0,0,22.3,0,0,9999,77777,9,999999999,0,0,0,99,0.2,0,0
2023,7,6,13,60,9,27.0,24.1,84.0,101325,0,0,0,0,0,0,0,0,0,0,0,21.7,0,0,9999,77777,9,999999999,0,0,0,99,0.2,0,0
2023,7,6,14,60,9,26.0,23.9,88.0,101325,0,0,0,0,0,0,0,0,0,0,0,21.7,0,0,9999,77777,9,999999999,0,0,0,99,0.2,0,0
2023,7,6,15,60,9,26.7,24.4,87.0,101325,0,0,0,0,0,0,0,0,0,0,0,21.4,0,0,9999,77777,9,999999999,0,0,0,99,0.2,0,0
2023,7,6,16,60,9,25.8,24.0,90.0,101325,0,0,0,0,0,0,0,0,0,0,0,19.2,0,0,9999,77777,9,999999999,0,0,0,99,0.2,0,0
2023,7,6,17,60,9,25.9,24.1,90.0,101325,0,0,0,0,0,0,0,0,0,0,0,21.0,0,0,9999,77777,9,999999999,0,0,0,99,0.2,0,0
2023,7,6,18,60,9,26.2,24.3,89.0,101325,0,0,0,0,0,0,0,0,0,0,0,18.3,0,0,9999,77777,9,999999999,0,0,0,99,0.2,0,0
2023,7,6,19,60,9,25.8,24.3,91.0,101325,0,0,0,0,0,0,0,0,0,0,0,18.9,0,0,9999,77777,9,999999999,0,0,0,99,0.2,0,0
2023,7,6,20,60,9,25.7,24.3,92.0,101325,0,0,0,0,0,0,0,0,0,0,0,19.2,0,0,9999,77777,9,999999999,0,0,0,99,0.2,0,0
2023,7,6,21,60,9,25.9,24.4,91.0,101325,0,0,0,0,0,0,0,0,0,0,0,16.0,0,0,9999,77777,9,999999999,0,0,0,99,0.2,0,0
2023,7,6,22,60,9,25.8,24.3,92.0,101325,0,0,0,0,0,0,0,0,0,0,0,15.2,0,0,9999,77777,9,999999999,0,0,0,99,0.2,0,0
2023,7,6,23,60,9,25.6,24.3,92.0,101325,0,0,0,0,0,0,0,0,0,0,0,15.6,0,0,9999,77777,9,999999999,0,0,0,99,0.2,0,0
2023,7,6,24,60,9,25.8,24.3,91.0,101325,0,0,0,0,0,0,0,0,0,0,0,18.4,0,0,9999,77777,9,999999999,0,0,0,99,0.2,0,0
2023,7,7,1,60,9,25.8,24.6,93.0,101325,0,0,0,0,0,0,0,0,0,0,0,17.1,0,0,9999,77777,9,999999999,0,0,0,99,0.2,0,0
2023,7,7,2,60,9,26.2,24.8,92.0,101325,0,0,0,0,0,0,0,0,0,0,0,16.0,0,0,9999,77777,9,999999999,0,0,0,99,0.2,0,0
2023,7,7,3,60,9,25.5,24.5,94.0,101325,0,0,0,0,0,0,0,0,0,0,0,20.4,0,0,9999,77777,9,999999999,0,0,0,99,0.2,0,0
2023,7,7,4,60,9,26.2,24.8,92.0,101325,0,0,0,0,0,0,0,0,0,0,0,18.6,0,0,9999,77777,9,999999999,0,0,0,99,0.2,0,0
2023,7,7,5,60,9,26.5,25.0,92.0,101325,0,0,0,0,0,0,0,0,0,0,0,16.3,0,0,9999,77777,9,999999999,0,0,0,99,0.2,0,0
2023,7,7,6,60,9,26.3,24.6,90.0,101325,0,0,0,0,0,0,0,0,0,0,0,20.0,0,0,9999,77777,9,999999999,0,0,0,99,0.2,0,0
2023,7,7,7,60,9,27.2,24.5,85.0,101325,0,0,0,0,0,0,0,0,0,0,0,22.4,0,0,9999,77777,9,999999999,0,0,0,99,0.2,0,0
2023,7,7,8,60,9,27.8,24.9,84.0,101325,0,0,0,0,0,0,0,0,0,0,0,20.8,0,0,9999,77777,9,999999999,0,0,0,99,0.2,0,0
2023,7,7,9,60,9,26.7,24.2,86.0,101325,0,0,0,0,0,0,0,0,0,0,0,26.8,0,0,9999,77777,9,999999999,0,0,0,99,0.2,0,0
2023,7,7,10,60,9,27.0,24.9,88.0,101325,0,0,0,0,0,0,0,0,0,0,0,25.5,0,0,9999,77777,9,999999999,0,0,0,99,0.2,0,0
2023,7,7,11,60,9,27.2,25.0,88.0,101325,0,0,0,0,0,0,0,0,0,0,0,23.8,0,0,9999,77777,9,999999999,0,0,0,99,0.2,0,0
2023,7,7,12,60,9,26.2,24.8,92.0,101325,0,0,0,0,0,0,0,0,0,0,0,24.3,0,0,9999,77777,9,999999999,0,0,0,99,0.2,0,0
2023,7,7,13,60,9,26.7,24.8,90.0,101325,0,0,0,0,0,0,0,0,0,0,0,26.3,0,0,9999,77777,9,999999999,0,0,0,99,0.2,0,0
2023,7,7,14,60,9,26.4,24.8,91.0,101325,0,0,0,0,0,0,0,0,0,0,0,26.4,0,0,9999,77777,9,999999999,0,0,0,99,0.2,0,0
2023,7,7,15,60,9,26.0,24.3,90.0,101325,0,0,0,0,0,0,0,0,0,0,0,23.5,0,0,9999,77777,9,999999999,0,0,0,99,0.2,0,0
2023,7,7,16,60,9,26.0,24.5,91.0,101325,0,0,0,0,0,0,0,0,0,0,0,21.5,0,0,9999,77777,9,999999999,0,0,0,99,0.2,0,0
2023,7,7,17,60,9,26.3,24.5,90.0,101325,0,0,0,0,0,0,0,0,0,0,0,20.5,0,0,9999,77777,9,999999999,0,0,0,99,0.2,0,0
2023,7,7,18,60,9,26.2,24.4,90.0,101325,0,0,0,0,0,0,0,0,0,0,0,21.8,0,0,9999,77777,9,999999999,0,0,0,99,0.2,0,0
2023,7,7,19,60,9,26.2,24.4,90.0,101325,0,0,0,0,0,0,0,0,0,0,0,22.0,0,0,9999,77777,9,999999999,0,0,0,99,0.2,0,0
2023,7,7,20,60,9,26.3,24.5,90.0,101325,0,0,0,0,0,0,0,0,0,0,0,22.8,0,0,9999,77777,9,999999999,0,0,0,99,0.2,0,0
2023,7,7,21,60,9,26.2,25.0,93.0,101325,0,0,0,0,0,0,0,0,0,0,0,22.2,0,0,9999,77777,9,999999999,0,0,0,99,0.2,0,0
2023,7,7,22,60,9,25.9,24.2,90.0,101325,0,0,0,0,0,0,0,0,0,0,0,22.6,0,0,9999,77777,9,999999999,0,0,0,99,0.2,0,0
2023,7,7,23,60,9,25.5,24.0,91.0,101325,0,0,0,0,0,0,0,0,0,0,0,17.6,0,0,9999,77777,9,999999999,0,0,0,99,0.2,0,0
2023,7,7,24,60,9,25.7,24.2,91.0,101325,0,0,0,0,0,0,0,0,0,0,0,19.9,0,0,9999,77777,9,999999999,0,0,0,99,0.2,0,0
2023,7,8,1,60,9,26.5,24.7,90.0,101325,0,0,0,0,0,0,0,0,0,0,0,19.2,0,0,9999,77777,9,999999999,0,0,0,99,0.2,0,0
2023,7,8,2,60,9,26.7,24.6,89.0,101325,0,0,0,0,0,0,0,0,0,0,0,22.1,0,0,9999,77777,9,999999999,0,0,0,99,0.2,0,0
2023,7,8,3,60,9,26.8,24.7,88.0,101325,0,0,0,0,0,0,0,0,0,0,0,22.2,0,0,9999,77777,9,999999999,0,0,0,99,0.2,0,0
2023,7,8,4,60,9,27.3,25.0,87.0,101325,0,0,0,0,0,0,0,0,0,0,0,22.0,0,0,9999,77777,9,999999999,0,0,0,99,0.2,0,0
2023,7,8,5,60,9,28.1,24.5,81.0,101325,0,0,0,0,0,0,0,0,0,0,0,26.9,0,0,9999,77777,9,999999999,0,0,0,99,0.2,0,0
2023,7,8,6,60,9,27.5,24.6,84.0,101325,0,0,0,0,0,0,0,0,0,0,0,25.8,0,0,9999,77777,9,999999999,0,0,0,99,0.2,0,0
2023,7,8,7,60,9,28.8,25.2,81.0,101325,0,0,0,0,0,0,0,0,0,0,0,26.0,0,0,9999,77777,9,999999999,0,0,0,99,0.2,0,0
2023,7,8,8,60,9,29.4,25.3,78.0,101325,0,0,0,0,0,0,0,0,0,0,0,27.7,0,0,9999,77777,9,999999999,0,0,0,99,0.2,0,0
2023,7,8,9,60,9,29.7,25.1,76.0,101325,0,0,0,0,0,0,0,0,0,0,0,27.2,0,0,9999,77777,9,999999999,0,0,0,99,0.2,0,0
2023,7,8,10,60,9,29.7,25.2,77.0,101325,0,0,0,0,0,0,0,0,0,0,0,29.3,0,0,9999,77777,9,999999999,0,0,0,99,0.2,0,0
2023,7,8,11,60,9,29.2,25.2,79.0,101325,0,0,0,0,0,0,0,0,0,0,0,28.9,0,0,9999,77777,9,999999999,0,0,0,99,0.2,0,0
2023,7,8,12,60,9,28.8,24.8,79.0,101325,0,0,0,0,0,0,0,0,0,0,0,28.9,0,0,9999,77777,9,999999999,0,0,0,99,0.2,0,0
2023,7,8,13,60,9,28.9,24.4,76.0,101325,0,0,0,0,0,0,0,0,0,0,0,24.7,0,0,9999,77777,9,999999999,0,0,0,99,0.2,0,0
2023,7,8,14,60,9,28.1,23.8,78.0,101325,0,0,0,0,0,0,0,0,0,0,0,24.5,0,0,9999,77777,9,999999999,0,0,0,99,0.2,0,0
2023,7,8,15,60,9,27.6,23.9,80.0,101325,0,0,0,0,0,0,0,0,0,0,0,21.9,0,0,9999,77777,9,999999999,0,0,0,99,0.2,0,0
2023,7,8,16,60,9,27.7,23.9,80.0,101325,0,0,0,0,0,0,0,0,0,0,0,22.4,0,0,9999,77777,9,999999999,0,0,0,99,0.2,0,0
2023,7,8,17,60,9,27.3,24.0,82.0,101325,0,0,0,0,0,0,0,0,0,0,0,21.1,0,0,9999,77777,9,999999999,0,0,0,99,0.2,0,0
2023,7,8,18,60,9,27.1,23.7,81.0,101325,0,0,0,0,0,0,0,0,0,0,0,21.4,0,0,9999,77777,9,999999999,0,0,0,99,0.2,0,0
2023,7,8,19,60,9,27.4,23.7,81.0,101325,0,0,0,0,0,0,0,0,0,0,0,23.2,0,0,9999,77777,9,999999999,0,0,0,99,0.2,0,0
2023,7,8,20,60,9,26.7,24.0,85.0,101325,0,0,0,0,0,0,0,0,0,0,0,22.2,0,0,9999,77777,9,999999999,0,0,0,99,0.2,0,0
2023,7,8,21,60,9,26.3,24.1,88.0,101325,0,0,0,0,0,0,0,0,0,0,0,21.9,0,0,9999,77777,9,999999999,0,0,0,99,0.2,0,0
2023,7,8,22,60,9,25.3,24.0,92.0,101325,0,0,0,0,0,0,0,0,0,0,0,20.4,0,0,9999,77777,9,999999999,0,0,0,99,0.2,0,0
2023,7,8,23,60,9,26.2,23.9,87.0,101325,0,0,0,0,0,0,0,0,0,0,0,20.1,0,0,9999,77777,9,999999999,0,0,0,99,0.2,0,0
2023,7,8,24,60,9,26.0,23.9,88.0,101325,0,0,0,0,0,0,0,0,0,0,0,20.6,0,0,9999,77777,9,999999999,0,0,0,99,0.2,0,0
2023,7,9,1,60,9,27.1,24.3,85.0,101325,0,0,0,0,0,0,0,0,0,0,0,20.3,0,0,9999,77777,9,999999999,0,0,0,99,0.2,0,0
2023,7,9,2,60,9,26.6,23.8,85.0,101325,0,0,0,0,0,0,0,0,0,0,0,19.1,0,0,9999,77777,9,999999999,0,0,0,99,0.2,0,0
2023,7,9,3,60,9,26.8,24.6,88.0,101325,0,0,0,0,0,0,0,0,0,0,0,19.2,0,0,9999,77777,9,999999999,0,0,0,99,0.2,0,0
2023,7,9,4,60,9,27.7,24.7,84.0,101325,0,0,0,0,0,0,0,0,0,0,0,19.5,0,0,9999,77777,9,999999999,0,0,0,99,0.2,0,0
2023,7,9,5,60,9,28.7,24.0,76.0,101325,0,0,0,0,0,0,0,0,0,0,0,23.7,0,0,9999,77777,9,999999999,0,0,0,99,0.2,0,0
2023,7,9,6,60,9,29.1,24.7,77.0,101325,0,0,0,0,0,0,0,0,0,0,0,23.9,0,0,9999,77777,9,999999999,0,0,0,99,0.2,0,0
2023,7,9,7,60,9,29.2,24.9,77.0,101325,0,0,0,0,0,0,0,0,0,0,0,24.4,0,0,9999,77777,9,999999999,0,0,0,99,0.2,0,0
2023,7,9,8,60,9,29.2,24.1,74.0,101325,0,0,0,0,0,0,0,0,0,0,0,25.6,0,0,9999,77777,9,999999999,0,0,0,99,0.2,0,0
2023,7,9,9,60,9,28.6,24.2,77.0,101325,0,0,0,0,0,0,0,0,0,0,0,24.2,0,0,9999,77777,9,999999999,0,0,0,99,0.2,0,0
2023,7,9,10,60,9,28.4,23.8,76.0,101325,0,0,0,0,0,0,0,0,0,0,0,26.2,0,0,9999,77777,9,999999999,0,0,0,99,0.2,0,0
2023,7,9,11,60,9,29.0,23.7,73.0,101325,0,0,0,0,0,0,0,0,0,0,0,27.4,0,0,9999,77777,9,999999999,0,0,0,99,0.2,0,0
2023,7,9,12,60,9,28.5,24.8,80.0,101325,0,0,0,0,0,0,0,0,0,0,0,24.1,0,0,9999,77777,9,999999999,0,0,0,99,0.2,0,0
2023,7,9,13,60,9,28.0,23.6,77.0,101325,0,0,0,0,0,0,0,0,0,0,0,24.9,0,0,9999,77777,9,999999999,0,0,0,99,0.2,0,0
2023,7,9,14,60,9,27.6,24.1,81.0,101325,0,0,0,0,0,0,0,0,0,0,0,21.3,0,0,9999,77777,9,999999999,0,0,0,99,0.2,0,0
2023,7,9,15,60,9,26.9,24.2,85.0,101325,0,0,0,0,0,0,0,0,0,0,0,19.1,0,0,9999,77777,9,999999999,0,0,0,99,0.2,0,0
2023,7,9,16,60,9,27.1,23.8,82.0,101325,0,0,0,0,0,0,0,0,0,0,0,19.5,0,0,9999,77777,9,999999999,0,0,0,99,0.2,0,0
2023,7,9,17,60,9,27.2,24.4,85.0,101325,0,0,0,0,0,0,0,0,0,0,0,17.1,0,0,9999,77777,9,999999999,0,0,0,99,0.2,0,0
2023,7,9,18,60,9,27.2,23.9,82.0,101325,0,0,0,0,0,0,0,0,0,0,0,18.9,0,0,9999,77777,9,999999999,0,0,0,99,0.2,0,0
2023,7,9,19,60,9,27.1,23.8,82.0,101325,0,0,0,0,0,0,0,0,0,0,0,20.1,0,0,9999,77777,9,999999999,0,0,0,99,0.2,0,0
2023,7,9,20,60,9,27.0,24.0,84.0,101325,0,0,0,0,0,0,0,0,0,0,0,18.8,0,0,9999,77777,9,999999999,0,0,0,99,0.2,0,0
2023,7,9,21,60,9,26.3,23.5,84.0,101325,0,0,0,0,0,0,0,0,0,0,0,17.6,0,0,9999,77777,9,999999999,0,0,0,99,0.2,0,0
2023,7,9,22,60,9,26.2,23.7,86.0,101325,0,0,0,0,0,0,0,0,0,0,0,16.7,0,0,9999,77777,9,999999999,0,0,0,99,0.2,0,0
2023,7,9,23,60,9,26.5,24.1,87.0,101325,0,0,0,0,0,0,0,0,0,0,0,15.3,0,0,9999,77777,9,999999999,0,0,0,99,0.2,0,0
2023,7,9,24,60,9,26.0,24.0,89.0,101325,0,0,0,0,0,0,0,0,0,0,0,16.5,0,0,9999,77777,9,999999999,0,0,0,99,0.2,0,0
2023,7,10,1,60,9,26.2,24.1,88.0,101325,0,0,0,0,0,0,0,0,0,0,0,17.6,0,0,9999,77777,9,999999999,0,0,0,99,0.2,0,0
2023,7,10,2,60,9,26.8,24.4,86.0,101325,0,0,0,0,0,0,0,0,0,0,0,14.3,0,0,9999,77777,9,999999999,0,0,0,99,0.2,0,0
2023,7,10,3,60,9,27.0,24.6,87.0,101325,0,0,0,0,0,0,0,0,0,0,0,16.1,0,0,9999,77777,9,999999999,0,0,0,99,0.2,0,0
2023,7,10,4,60,9,27.9,24.7,83.0,101325,0,0,0,0,0,0,0,0,0,0,0,18.1,0,0,9999,77777,9,999999999,0,0,0,99,0.2,0,0
2023,7,10,5,60,9,28.1,24.2,79.0,101325,0,0,0,0,0,0,0,0,0,0,0,20.0,0,0,9999,77777,9,999999999,0,0,0,99,0.2,0,0
2023,7,10,6,60,9,28.1,24.4,81.0,101325,0,0,0,0,0,0,0,0,0,0,0,18.5,0,0,9999,77777,9,999999999,0,0,0,99,0.2,0,0
2023,7,10,7,60,9,28.3,24.1,78.0,101325,0,0,0,0,0,0,0,0,0,0,0,19.4,0,0,9999,77777,9,999999999,0,0,0,99,0.2,0,0
2023,7,10,8,60,9,27.4,23.9,81.0,101325,0,0,0,0,0,0,0,0,0,0,0,20.9,0,0,9999,77777,9,999999999,0,0,0,99,0.2,0,0
2023,7,10,9,60,9,28.7,24.5,78.0,101325,0,0,0,0,0,0,0,0,0,0,0,20.9,0,0,9999,77777,9,999999999,0,0,0,99,0.2,0,0
2023,7,10,10,60,9,28.2,24.2,79.0,101325,0,0,0,0,0,0,0,0,0,0,0,21.4,0,0,9999,77777,9,999999999,0,0,0,99,0.2,0,0
2023,7,10,11,60,9,28.6,24.2,77.0,101325,0,0,0,0,0,0,0,0,0,0,0,22.7,0,0,9999,77777,9,999999999,0,0,0,99,0.2,0,0
2023,7,10,12,60,9,28.2,23.9,78.0,101325,0,0,0,0,0,0,0,0,0,0,0,22.4,0,0,9999,77777,9,999999999,0,0,0,99,0.2,0,0
2023,7,10,13,60,9,28.6,24.1,77.0,101325,0,0,0,0,0,0,0,0,0,0,0,19.6,0,0,9999,77777,9,999999999,0,0,0,99,0.2,0,0
2023,7,10,14,60,9,28.3,24.3,79.0,101325,0,0,0,0,0,0,0,0,0,0,0,17.5,0,0,9999,77777,9,999999999,0,0,0,99,0.2,0,0
2023,7,10,15,60,9,28.0,23.9,78.0,101325,0,0,0,0,0,0,0,0,0,0,0,15.7,0,0,9999,77777,9,999999999,0,0,0,99,0.2,0,0
2023,7,10,16,60,9,27.8,23.9,79.0,101325,0,0,0,0,0,0,0,0,0,0,0,15.0,0,0,9999,77777,9,999999999,0,0,0,99,0.2,0,0
2023,7,10,17,60,9,27.8,23.9,79.0,101325,0,0,0,0,0,0,0,0,0,0,0,14.7,0,0,9999,77777,9,999999999,0,0,0,99,0.2,0,0
2023,7,10,18,60,9,27.6,23.9,80.0,101325,0,0,0,0,0,0,0,0,0,0,0,15.5,0,0,9999,77777,9,999999999,0,0,0,99,0.2,0,0
2023,7,10,19,60,9,27.4,24.0,82.0,101325,0,0,0,0,0,0,0,0,0,0,0,16.0,0,0,9999,77777,9,999999999,0,0,0,99,0.2,0,0
2023,7,10,20,60,9,27.3,24.0,82.0,101325,0,0,0,0,0,0,0,0,0,0,0,16.1,0,0,9999,77777,9,999999999,0,0,0,99,0.2,0,0
2023,7,10,21,60,9,27.3,23.7,81.0,101325,0,0,0,0,0,0,0,0,0,0,0,17.0,0,0,9999,77777,9,999999999,0,0,0,99,0.2,0,0
2023,7,10,22,60,9,27.1,23.6,81.0,101325,0,0,0,0,0,0,0,0,0,0,0,15.8,0,0,9999,77777,9,999999999,0,0,0,99,0.2,0,0
2023,7,10,23,60,9,26.5,23.9,86.0,101325,0,0,0,0,0,0,0,0,0,0,0,14.6,0,0,9999,77777,9,999999999,0,0,0,99,0.2,0,0
2023,7,10,24,60,9,26.6,24.1,86.0,101325,0,0,0,0,0,0,0,0,0,0,0,14.2,0,0,9999,77777,9,999999999,0,0,0,99,0.2,0,0
2023,7,11,1,60,9,25.4,23.9,91.0,101325,0,0,0,0,0,0,0,0,0,0,0,13.4,0,0,9999,77777,9,999999999,0,0,0,99,0.2,0,0
2023,7,11,2,60,9,26.9,24.5,87.0,101325,0,0,0,0,0,0,0,0,0,0,0,13.6,0,0,9999,77777,9,999999999,0,0,0,99,0.2,0,0
2023,7,11,3,60,9,27.5,24.6,84.0,101325,0,0,0,0,0,0,0,0,0,0,0,14.8,0,0,9999,77777,9,999999999,0,0,0,99,0.2,0,0
2023,7,11,4,60,9,27.9,24.1,80.0,101325,0,0,0,0,0,0,0,0,0,0,0,16.6,0,0,9999,77777,9,999999999,0,0,0,99,0.2,0,0
2023,7,11,5,60,9,28.3,24.2,79.0,101325,0,0,0,0,0,0,0,0,0,0,0,16.9,0,0,9999,77777,9,999999999,0,0,0,99,0.2,0,0
2023,7,11,6,60,9,29.0,24.7,77.0,101325,0,0,0,0,0,0,0,0,0,0,0,16.9,0,0,9999,77777,9,999999999,0,0,0,99,0.2,0,0
2023,7,11,7,60,9,29.6,24.7,75.0,101325,0,0,0,0,0,0,0,0,0,0,0,17.3,0,0,9999,77777,9,999999999,0,0,0,99,0.2,0,0
2023,7,11,8,60,9,29.5,24.6,75.0,101325,0,0,0,0,0,0,0,0,0,0,0,18.2,0,0,9999,77777,9,999999999,0,0,0,99,0.2,0,0
2023,7,11,9,60,9,29.1,24.7,77.0,101325,0,0,0,0,0,0,0,0,0,0,0,18.7,0,0,9999,77777,9,999999999,0,0,0,99,0.2,0,0
2023,7,11,10,60,9,29.3,24.6,76.0,101325,0,0,0,0,0,0,0,0,0,0,0,20.4,0,0,9999,77777,9,999999999,0,0,0,99,0.2,0,0
2023,7,11,11,60,9,28.7,24.1,76.0,101325,0,0,0,0,0,0,0,0,0,0,0,20.1,0,0,9999,77777,9,999999999,0,0,0,99,0.2,0,0
2023,7,11,12,60,9,28.5,24.4,78.0,101325,0,0,0,0,0,0,0,0,0,0,0,20.0,0,0,9999,77777,9,999999999,0,0,0,99,0.2,0,0
2023,7,11,13,60,9,28.2,23.7,77.0,101325,0,0,0,0,0,0,0,0,0,0,0,20.0,0,0,9999,77777,9,999999999,0,0,0,99,0.2,0,0
2023,7,11,14,60,9,27.4,24.2,83.0,101325,0,0,0,0,0,0,0,0,0,0,0,14.4,0,0,9999,77777,9,999999999,0,0,0,99,0.2,0,0
2023,7,11,15,60,9,27.5,24.3,82.0,101325,0,0,0,0,0,0,0,0,0,0,0,12.7,0,0,9999,77777,9,999999999,0,0,0,99,0.2,0,0
2023,7,11,16,60,9,27.0,23.8,83.0,101325,0,0,0,0,0,0,0,0,0,0,0,11.7,0,0,9999,77777,9,999999999,0,0,0,99,0.2,0,0
2023,7,11,17,60,9,27.0,24.0,84.0,101325,0,0,0,0,0,0,0,0,0,0,0,8.0,0,0,9999,77777,9,999999999,0,0,0,99,0.2,0,0
2023,7,11,18,60,9,26.5,24.3,87.0,101325,0,0,0,0,0,0,0,0,0,0,0,6.2,0,0,9999,77777,9,999999999,0,0,0,99,0.2,0,0
2023,7,11,19,60,9,26.1,24.4,91.0,101325,0,0,0,0,0,0,0,0,0,0,0,4.8,0,0,9999,77777,9,999999999,0,0,0,99,0.2,0,0
2023,7,11,20,60,9,25.7,24.5,93.0,101325,0,0,0,0,0,0,0,0,0,0,0,6.8,0,0,9999,77777,9,999999999,0,0,0,99,0.2,0,0
2023,7,11,21,60,9,25.6,24.3,93.0,101325,0,0,0,0,0,0,0,0,0,0,0,7.7,0,0,9999,77777,9,999999999,0,0,0,99,0.2,0,0
2023,7,11,22,60,9,25.5,24.4,93.0,101325,0,0,0,0,0,0,0,0,0,0,0,6.5,0,0,9999,77777,9,999999999,0,0,0,99,0.2,0,0
2023,7,11,23,60,9,25.8,24.3,92.0,101325,0,0,0,0,0,0,0,0,0,0,0,5.7,0,0,9999,77777,9,999999999,0,0,0,99,0.2,0,0
2023,7,11,24,60,9,25.6,24.3,93.0,101325,0,0,0,0,0,0,0,0,0,0,0,12.3,0,0,9999,77777,9,999999999,0,0,0,99,0.2,0,0
2023,7,12,1,60,9,25.9,24.8,94.0,101325,0,0,0,0,0,0,0,0,0,0,0,5.8,0,0,9999,77777,9,999999999,0,0,0,99,0.2,0,0
2023,7,12,2,60,9,26.6,24.7,89.0,101325,0,0,0,0,0,0,0,0,0,0,0,7.8,0,0,9999,77777,9,999999999,0,0,0,99,0.2,0,0
2023,7,12,3,60,9,26.5,25.1,92.0,101325,0,0,0,0,0,0,0,0,0,0,0,4.0,0,0,9999,77777,9,999999999,0,0,0,99,0.2,0,0
2023,7,12,4,60,9,26.7,25.1,91.0,101325,0,0,0,0,0,0,0,0,0,0,0,4.8,0,0,9999,77777,9,999999999,0,0,0,99,0.2,0,0
2023,7,12,5,60,9,26.2,24.3,89.0,101325,0,0,0,0,0,0,0,0,0,0,0,3.6,0,0,9999,77777,9,999999999,0,0,0,99,0.2,0,0
2023,7,12,6,60,9,26.7,24.3,87.0,101325,0,0,0,0,0,0,0,0,0,0,0,7.5,0,0,9999,77777,9,999999999,0,0,0,99,0.2,0,0
2023,7,12,7,60,9,26.5,24.0,86.0,101325,0,0,0,0,0,0,0,0,0,0,0,8.0,0,0,9999,77777,9,999999999,0,0,0,99,0.2,0,0
2023,7,12,8,60,9,26.9,24.2,85.0,101325,0,0,0,0,0,0,0,0,0,0,0,9.3,0,0,9999,77777,9,999999999,0,0,0,99,0.2,0,0
2023,7,12,9,60,9,26.8,24.0,85.0,101325,0,0,0,0,0,0,0,0,0,0,0,9.9,0,0,9999,77777,9,999999999,0,0,0,99,0.2,0,0
2023,7,12,10,60,9,26.5,24.2,87.0,101325,0,0,0,0,0,0,0,0,0,0,0,7.4,0,0,9999,77777,9,999999999,0,0,0,99,0.2,0,0
2023,7,12,11,60,9,26.7,24.2,86.0,101325,0,0,0,0,0,0,0,0,0,0,0,7.8,0,0,9999,77777,9,999999999,0,0,0,99,0.2,0,0
2023,7,12,12,60,9,26.3,24.0,87.0,101325,0,0,0,0,0,0,0,0,0,0,0,9.1,0,0,9999,77777,9,999999999,0,0,0,99,0.2,0,0
2023,7,12,13,60,9,27.0,24.4,86.0,101325,0,0,0,0,0,0,0,0,0,0,0,8.3,0,0,9999,77777,9,999999999,0,0,0,99,0.2,0,0
2023,7,12,14,60,9,26.5,24.8,90.0,101325,0,0,0,0,0,0,0,0,0,0,0,5.4,0,0,9999,77777,9,999999999,0,0,0,99,0.2,0,0
2023,7,12,15,60,9,26.0,24.8,93.0,101325,0,0,0,0,0,0,0,0,0,0,0,4.6,0,0,9999,77777,9,999999999,0,0,0,99,0.2,0,0
2023,7,12,16,60,9,25.9,24.9,94.0,101325,0,0,0,0,0,0,0,0,0,0,0,9.6,0,0,9999,77777,9,999999999,0,0,0,99,0.2,0,0
2023,7,12,17,60,9,25.6,24.1,91.0,101325,0,0,0,0,0,0,0,0,0,0,0,12.8,0,0,9999,77777,9,999999999,0,0,0,99,0.2,0,0
2023,7,12,18,60,9,25.1,23.6,91.0,101325,0,0,0,0,0,0,0,0,0,0,0,3.8,0,0,9999,77777,9,999999999,0,0,0,99,0.2,0,0
2023,7,12,19,60,9,25.2,23.9,93.0,101325,0,0,0,0,0,0,0,0,0,0,0,9.4,0,0,9999,77777,9,999999999,0,0,0,99,0.2,0,0
2023,7,12,20,60,9,24.7,24.1,97.0,101325,0,0,0,0,0,0,0,0,0,0,0,11.6,0,0,9999,77777,9,999999999,0,0,0,99,0.2,0,0
2023,7,12,21,60,9,25.0,24.1,95.0,101325,0,0,0,0,0,0,0,0,0,0,0,13.2,0,0,9999,77777,9,999999999,0,0,0,99,0.2,0,0
2023,7,12,22,60,9,25.0,24.1,95.0,101325,0,0,0,0,0,0,0,0,0,0,0,12.7,0,0,9999,77777,9,999999999,0,0,0,99,0.2,0,0
2023,7,12,23,60,9,24.9,24.2,96.0,101325,0,0,0,0,0,0,0,0,0,0,0,11.5,0,0,9999,77777,9,999999999,0,0,0,99,0.2,0,0
2023,7,12,24,60,9,25.0,24.1,95.0,101325,0,0,0,0,0,0,0,0,0,0,0,10.8,0,0,9999,77777,9,999999999,0,0,0,99,0.2,0,0
2023,7,13,1,60,9,25.4,24.6,95.0,101325,0,0,0,0,0,0,0,0,0,0,0,3.4,0,0,9999,77777,9,999999999,0,0,0,99,0.2,0,0
2023,7,13,2,60,9,25.9,24.7,93.0,101325,0,0,0,0,0,0,0,0,0,0,0,4.0,0,0,9999,77777,9,999999999,0,0,0,99,0.2,0,0
2023,7,13,3,60,9,26.1,24.4,90.0,101325,0,0,0,0,0,0,0,0,0,0,0,10.9,0,0,9999,77777,9,999999999,0,0,0,99,0.2,0,0
2023,7,13,4,60,9,26.3,24.5,90.0,101325,0,0,0,0,0,0,0,0,0,0,0,11.3,0,0,9999,77777,9,999999999,0,0,0,99,0.2,0,0
2023,7,13,5,60,9,26.8,24.5,88.0,101325,0,0,0,0,0,0,0,0,0,0,0,11.8,0,0,9999,77777,9,999999999,0,0,0,99,0.2,0,0
2023,7,13,6,60,9,27.3,24.6,85.0,101325,0,0,0,0,0,0,0,0,0,0,0,14.3,0,0,9999,77777,9,999999999,0,0,0,99,0.2,0,0
2023,7,13,7,60,9,26.4,23.9,86.0,101325,0,0,0,0,0,0,0,0,0,0,0,15.5,0,0,9999,77777,9,999999999,0,0,0,99,0.2,0,0
2023,7,13,8,60,9,27.3,24.2,83.0,101325,0,0,0,0,0,0,0,0,0,0,0,12.0,0,0,9999,77777,9,999999999,0,0,0,99,0.2,0,0
2023,7,13,9,60,9,27.2,24.2,83.0,101325,0,0,0,0,0,0,0,0,0,0,0,18.2,0,0,9999,77777,9,999999999,0,0,0,99,0.2,0,0
2023,7,13,10,60,9,27.2,24.0,83.0,101325,0,0,0,0,0,0,0,0,0,0,0,14.7,0,0,9999,77777,9,999999999,0,0,0,99,0.2,0,0
2023,7,13,11,60,9,27.3,24.1,83.0,101325,0,0,0,0,0,0,0,0,0,0,0,17.3,0,0,9999,77777,9,999999999,0,0,0,99,0.2,0,0
2023,7,13,12,60,9,27.3,24.1,82.0,101325,0,0,0,0,0,0,0,0,0,0,0,16.6,0,0,9999,77777,9,999999999,0,0,0,99,0.2,0,0
2023,7,13,13,60,9,27.1,24.6,86.0,101325,0,0,0,0,0,0,0,0,0,0,0,11.9,0,0,9999,77777,9,999999999,0,0,0,99,0.2,0,0
2023,7,13,14,60,9,26.7,24.5,88.0,101325,0,0,0,0,0,0,0,0,0,0,0,11.0,0,0,9999,77777,9,999999999,0,0,0,99,0.2,0,0
2023,7,13,15,60,9,26.0,24.6,92.0,101325,0,0,0,0,0,0,0,0,0,0,0,10.1,0,0,9999,77777,9,999999999,0,0,0,99,0.2,0,0
2023,7,13,16,60,9,25.8,24.7,94.0,101325,0,0,0,0,0,0,0,0,0,0,0,8.4,0,0,9999,77777,9,999999999,0,0,0,99,0.2,0,0
2023,7,13,17,60,9,25.8,24.6,93.0,101325,0,0,0,0,0,0,0,0,0,0,0,10.6,0,0,9999,77777,9,999999999,0,0,0,99,0.2,0,0
2023,7,13,18,60,9,25.7,24.4,92.0,101325,0,0,0,0,0,0,0,0,0,0,0,10.4,0,0,9999,77777,9,999999999,0,0,0,99,0.2,0,0
2023,7,13,19,60,9,25.7,24.2,91.0,101325,0,0,0,0,0,0,0,0,0,0,0,6.4,0,0,9999,77777,9,999999999,0,0,0,99,0.2,0,0
2023,7,13,20,60,9,25.5,24.3,93.0,101325,0,0,0,0,0,0,0,0,0,0,0,8.3,0,0,9999,77777,9,999999999,0,0,0,99,0.2,0,0
2023,7,13,21,60,9,25.3,23.9,92.0,101325,0,0,0,0,0,0,0,0,0,0,0,12.0,0,0,9999,77777,9,999999999,0,0,0,99,0.2,0,0
2023,7,13,22,60,9,25.6,24.2,92.0,101325,0,0,0,0,0,0,0,0,0,0,0,12.5,0,0,9999,77777,9,999999999,0,0,0,99,0.2,0,0
2023,7,13,23,60,9,25.7,24.2,91.0,101325,0,0,0,0,0,0,0,0,0,0,0,14.3,0,0,9999,77777,9,999999999,0,0,0,99,0.2,0,0
2023,7,13,24,60,9,25.6,24.1,91.0,101325,0,0,0,0,0,0,0,0,0,0,0,12.2,0,0,9999,77777,9,999999999,0,0,0,99,0.2,0,0
2023,7,14,1,60,9,25.8,24.5,93.0,101325,0,0,0,0,0,0,0,0,0,0,0,10.9,0,0,9999,77777,9,999999999,0,0,0,99,0.2,0,0
2023,7,14,2,60,9,25.7,24.3,92.0,101325,0,0,0,0,0,0,0,0,0,0,0,9.4,0,0,9999,77777,9,999999999,0,0,0,99,0.2,0,0
2023,7,14,3,60,9,25.8,24.6,93.0,101325,0,0,0,0,0,0,0,0,0,0,0,11.8,0,0,9999,77777,9,999999999,0,0,0,99,0.2,0,0
2023,7,14,4,60,9,26.1,24.3,90.0,101325,0,0,0,0,0,0,0,0,0,0,0,13.8,0,0,9999,77777,9,999999999,0,0,0,99,0.2,0,0
2023,7,14,5,60,9,26.2,24.1,88.0,101325,0,0,0,0,0,0,0,0,0,0,0,13.5,0,0,9999,77777,9,999999999,0,0,0,99,0.2,0,0
2023,7,14,6,60,9,27.3,24.7,86.0,101325,0,0,0,0,0,0,0,0,0,0,0,10.5,0,0,9999,77777,9,999999999,0,0,0,99,0.2,0,0
2023,7,14,7,60,9,27.4,24.6,84.0,101325,0,0,0,0,0,0,0,0,0,0,0,16.3,0,0,9999,77777,9,999999999,0,0,0,99,0.2,0,0
2023,7,14,8,60,9,26.4,24.5,89.0,101325,0,0,0,0,0,0,0,0,0,0,0,19.4,0,0,9999,77777,9,999999999,0,0,0,99,0.2,0,0
2023,7,14,9,60,9,26.7,24.2,86.0,101325,0,0,0,0,0,0,0,0,0,0,0,17.1,0,0,9999,77777,9,999999999,0,0,0,99,0.2,0,0
2023,7,14,10,60,9,27.1,24.3,85.0,101325,0,0,0,0,0,0,0,0,0,0,0,21.0,0,0,9999,77777,9,999999999,0,0,0,99,0.2,0,0
2023,7,14,11,60,9,27.0,24.6,87.0,101325,0,0,0,0,0,0,0,0,0,0,0,20.5,0,0,9999,77777,9,999999999,0,0,0,99,0.2,0,0
2023,7,14,12,60,9,26.9,24.6,88.0,101325,0,0,0,0,0,0,0,0,0,0,0,19.7,0,0,9999,77777,9,999999999,0,0,0,99,0.2,0,0
2023,7,14,13,60,9,26.8,24.1,85.0,101325,0,0,0,0,0,0,0,0,0,0,0,11.7,0,0,9999,77777,9,999999999,0,0,0,99,0.2,0,0
2023,7,14,14,60,9,25.9,24.3,91.0,101325,0,0,0,0,0,0,0,0,0,0,0,15.5,0,0,9999,77777,9,999999999,0,0,0,99,0.2,0,0
2023,7,14,15,60,9,25.9,24.1,90.0,101325,0,0,0,0,0,0,0,0,0,0,0,14.4,0,0,9999,77777,9,999999999,0,0,0,99,0.2,0,0
2023,7,14,16,60,9,26.0,24.2,90.0,101325,0,0,0,0,0,0,0,0,0,0,0,13.4,0,0,9999,77777,9,999999999,0,0,0,99,0.2,0,0
2023,7,14,17,60,9,25.9,24.4,91.0,101325,0,0,0,0,0,0,0,0,0,0,0,11.3,0,0,9999,77777,9,999999999,0,0,0,99,0.2,0,0
2023,7,14,18,60,9,26.2,24.4,90.0,101325,0,0,0,0,0,0,0,0,0,0,0,10.5,0,0,9999,77777,9,999999999,0,0,0,99,0.2,0,0
2023,7,14,19,60,9,26.3,24.4,89.0,101325,0,0,0,0,0,0,0,0,0,0,0,10.5,0,0,9999,77777,9,999999999,0,0,0,99,0.2,0,0
2023,7,14,20,60,9,25.2,24.1,94.0,101325,0,0,0,0,0,0,0,0,0,0,0,10.9,0,0,9999,77777,9,999999999,0,0,0,99,0.2,0,0
2023,7,14,21,60,9,25.5,24.2,93.0,101325,0,0,0,0,0,0,0,0,0,0,0,10.5,0,0,9999,77777,9,999999999,0,0,0,99,0.2,0,0
2023,7,14,22,60,9,25.7,24.0,90.0,101325,0,0,0,0,0,0,0,0,0,0,0,12.7,0,0,9999,77777,9,999999999,0,0,0,99,0.2,0,0
2023,7,14,23,60,9,25.3,23.9,92.0,101325,0,0,0,0,0,0,0,0,0,0,0,15.2,0,0,9999,77777,9,999999999,0,0,0,99,0.2,0,0
2023,7,14,24,60,9,25.5,24.2,93.0,101325,0,0,0,0,0,0,0,0,0,0,0,11.0,0,0,9999,77777,9,999999999,0,0,0,99,0.2,0,0
2023,7,15,1,60,9,25.4,24.3,94.0,101325,0,0,0,0,0,0,0,0,0,0,0,12.4,0,0,9999,77777,9,999999999,0,0,0,99,0.2,0,0
2023,7,15,2,60,9,26.1,24.5,91.0,101325,0,0,0,0,0,0,0,0,0,0,0,10.4,0,0,9999,77777,9,999999999,0,0,0,99,0.2,0,0
2023,7,15,3,60,9,26.0,24.6,92.0,101325,0,0,0,0,0,0,0,0,0,0,0,12.2,0,0,9999,77777,9,999999999,0,0,0,99,0.2,0,0
2023,7,15,4,60,9,26.8,24.5,87.0,101325,0,0,0,0,0,0,0,0,0,0,0,12.3,0,0,9999,77777,9,999999999,0,0,0,99,0.2,0,0
2023,7,15,5,60,9,26.6,24.0,86.0,101325,0,0,0,0,0,0,0,0,0,0,0,11.0,0,0,9999,77777,9,999999999,0,0,0,99,0.2,0,0
2023,7,15,6,60,9,27.4,24.8,86.0,101325,0,0,0,0,0,0,0,0,0,0,0,10.6,0,0,9999,77777,9,999999999,0,0,0,99,0.2,0,0
2023,7,15,7,60,9,26.2,24.2,89.0,101325,0,0,0,0,0,0,0,0,0,0,0,13.2,0,0,9999,77777,9,999999999,0,0,0,99,0.2,0,0
2023,7,15,8,60,9,27.1,24.5,86.0,101325,0,0,0,0,0,0,0,0,0,0,0,12.9,0,0,9999,77777,9,999999999,0,0,0,99,0.2,0,0
2023,7,15,9,60,9,25.9,23.9,89.0,101325,0,0,0,0,0,0,0,0,0,0,0,8.4,0,0,9999,77777,9,999999999,0,0,0,99,0.2,0,0
2023,7,15,10,60,9,27.0,23.8,83.0,101325,0,0,0,0,0,0,0,0,0,0,0,17.6,0,0,9999,77777,9,999999999,0,0,0,99,0.2,0,0
2023,7,15,11,60,9,27.1,24.3,84.0,101325,0,0,0,0,0,0,0,0,0,0,0,14.7,0,0,9999,77777,9,999999999,0,0,0,99,0.2,0,0
2023,7,15,12,60,9,26.1,23.7,87.0,101325,0,0,0,0,0,0,0,0,0,0,0,10.7,0,0,9999,77777,9,999999999,0,0,0,99,0.2,0,0
2023,7,15,13,60,9,26.6,23.7,84.0,101325,0,0,0,0,0,0,0,0,0,0,0,11.6,0,0,9999,77777,9,999999999,0,0,0,99,0.2,0,0
2023,7,15,14,60,9,26.0,24.0,88.0,101325,0,0,0,0,0,0,0,0,0,0,0,14.5,0,0,9999,77777,9,999999999,0,0,0,99,0.2,0,0
2023,7,15,15,60,9,26.1,24.2,89.0,101325,0,0,0,0,0,0,0,0,0,0,0,10.0,0,0,9999,77777,9,999999999,0,0,0,99,0.2,0,0
2023,7,15,16,60,9,26.1,24.2,90.0,101325,0,0,0,0,0,0,0,0,0,0,0,7.6,0,0,9999,77777,9,999999999,0,0,0,99,0.2,0,0
2023,7,15,17,60,9,25.9,24.5,92.0,101325,0,0,0,0,0,0,0,0,0,0,0,9.0,0,0,9999,77777,9,999999999,0,0,0,99,0.2,0,0
2023,7,15,18,60,9,25.6,24.5,93.0,101325,0,0,0,0,0,0,0,0,0,0,0,5.5,0,0,9999,77777,9,999999999,0,0,0,99,0.2,0,0
2023,7,15,19,60,9,24.9,24.3,96.0,101325,0,0,0,0,0,0,0,0,0,0,0,7.9,0,0,9999,77777,9,999999999,0,0,0,99,0.2,0,0
2023,7,15,20,60,9,25.3,24.2,94.0,101325,0,0,0,0,0,0,0,0,0,0,0,5.2,0,0,9999,77777,9,999999999,0,0,0,99,0.2,0,0
2023,7,15,21,60,9,25.1,24.0,94.0,101325,0,0,0,0,0,0,0,0,0,0,0,8.4,0,0,9999,77777,9,999999999,0,0,0,99,0.2,0,0
2023,7,15,22,60,9,24.6,23.7,95.0,101325,0,0,0,0,0,0,0,0,0,0,0,9.3,0,0,9999,77777,9,999999999,0,0,0,99,0.2,0,0
2023,7,15,23,60,9,24.8,23.7,94.0,101325,0,0,0,0,0,0,0,0,0,0,0,5.5,0,0,9999,77777,9,999999999,0,0,0,99,0.2,0,0
2023,7,15,24,60,9,24.8,23.8,94.0,101325,0,0,0,0,0,0,0,0,0,0,0,6.3,0,0,9999,77777,9,999999999,0,0,0,99,0.2,0,0
2023,7,16,1,60,9,25.4,24.2,93.0,101325,0,0,0,0,0,0,0,0,0,0,0,12.1,0,0,9999,77777,9,999999999,0,0,0,99,0.2,0,0
2023,7,16,2,60,9,25.7,24.4,93.0,101325,0,0,0,0,0,0,0,0,0,0,0,11.8,0,0,9999,77777,9,999999999,0,0,0,99,0.2,0,0
2023,7,16,3,60,9,26.0,24.4,91.0,101325,0,0,0,0,0,0,0,0,0,0,0,9.7,0,0,9999,77777,9,999999999,0,0,0,99,0.2,0,0
2023,7,16,4,60,9,26.2,24.9,93.0,101325,0,0,0,0,0,0,0,0,0,0,0,8.7,0,0,9999,77777,9,999999999,0,0,0,99,0.2,0,0
2023,7,16,5,60,9,25.2,23.8,92.0,101325,0,0,0,0,0,0,0,0,0,0,0,11.2,0,0,9999,77777,9,999999999,0,0,0,99,0.2,0,0
2023,7,16,6,60,9,26.0,24.2,90.0,101325,0,0,0,0,0,0,0,0,0,0,0,2.9,0,0,9999,77777,9,999999999,0,0,0,99,0.2,0,0
2023,7,16,7,60,9,26.9,24.4,86.0,101325,0,0,0,0,0,0,0,0,0,0,0,11.6,0,0,9999,77777,9,999999999,0,0,0,99,0.2,0,0
2023,7,16,8,60,9,27.9,24.5,82.0,101325,0,0,0,0,0,0,0,0,0,0,0,11.9,0,0,9999,77777,9,999999999,0,0,0,99,0.2,0,0
2023,7,16,9,60,9,27.4,24.7,85.0,101325,0,0,0,0,0,0,0,0,0,0,0,12.2,0,0,9999,77777,9,999999999,0,0,0,99,0.2,0,0
2023,7,16,10,60,9,27.1,23.8,82.0,101325,0,0,0,0,0,0,0,0,0,0,0,13.7,0,0,9999,77777,9,999999999,0,0,0,99,0.2,0,0
2023,7,16,11,60,9,26.3,24.0,87.0,101325,0,0,0,0,0,0,0,0,0,0,0,9.7,0,0,9999,77777,9,999999999,0,0,0,99,0.2,0,0
2023,7,16,12,60,9,26.5,23.8,85.0,101325,0,0,0,0,0,0,0,0,0,0,0,16.8,0,0,9999,77777,9,999999999,0,0,0,99,0.2,0,0
2023,7,16,13,60,9,25.7,24.2,91.0,101325,0,0,0,0,0,0,0,0,0,0,0,13.8,0,0,9999,77777,9,999999999,0,0,0,99,0.2,0,0
2023,7,16,14,60,9,25.3,23.8,92.0,101325,0,0,0,0,0,0,0,0,0,0,0,6.6,0,0,9999,77777,9,999999999,0,0,0,99,0.2,0,0
2023,7,16,15,60,9,25.0,23.8,93.0,101325,0,0,0,0,0,0,0,0,0,0,0,8.0,0,0,9999,77777,9,999999999,0,0,0,99,0.2,0,0
2023,7,16,16,60,9,25.1,24.0,94.0,101325,0,0,0,0,0,0,0,0,0,0,0,12.1,0,0,9999,77777,9,999999999,0,0,0,99,0.2,0,0
2023,7,16,17,60,9,25.1,24.1,94.0,101325,0,0,0,0,0,0,0,0,0,0,0,13.0,0,0,9999,77777,9,999999999,0,0,0,99,0.2,0,0
2023,7,16,18,60,9,25.0,23.9,94.0,101325,0,0,0,0,0,0,0,0,0,0,0,11.8,0,0,9999,77777,9,999999999,0,0,0,99,0.2,0,0
2023,7,16,19,60,9,25.4,24.0,92.0,101325,0,0,0,0,0,0,0,0,0,0,0,12.6,0,0,9999,77777,9,999999999,0,0,0,99,0.2,0,0
2023,7,16,20,60,9,25.3,23.8,91.0,101325,0,0,0,0,0,0,0,0,0,0,0,14.1,0,0,9999,77777,9,999999999,0,0,0,99,0.2,0,0
2023,7,16,21,60,9,24.8,23.6,93.0,101325,0,0,0,0,0,0,0,0,0,0,0,13.6,0,0,9999,77777,9,999999999,0,0,0,99,0.2,0,0
2023,7,16,22,60,9,24.9,23.7,93.0,101325,0,0,0,0,0,0,0,0,0,0,0,14.8,0,0,9999,77777,9,999999999,0,0,0,99,0.2,0,0
2023,7,16,23,60,9,24.7,23.7,94.0,101325,0,0,0,0,0,0,0,0,0,0,0,10.9,0,0,9999,77777,9,999999999,0,0,0,99,0.2,0,0
2023,7,16,24,60,9,25.0,23.9,94.0,101325,0,0,0,0,0,0,0,0,0,0,0,12.4,0,0,9999,77777,9,999999999,0,0,0,99,0.2,0,0
2023,7,17,1,60,9,25.2,23.7,92.0,101325,0,0,0,0,0,0,0,0,0,0,0,13.2,0,0,9999,77777,9,999999999,0,0,0,99,0.2,0,0
2023,7,17,2,60,9,25.5,24.2,93.0,101325,0,0,0,0,0,0,0,0,0,0,0,7.2,0,0,9999,77777,9,999999999,0,0,0,99,0.2,0,0
2023,7,17,3,60,9,26.0,24.4,91.0,101325,0,0,0,0,0,0,0,0,0,0,0,13.4,0,0,9999,77777,9,999999999,0,0,0,99,0.2,0,0
2023,7,17,4,60,9,25.9,24.6,92.0,101325,0,0,0,0,0,0,0,0,0,0,0,12.0,0,0,9999,77777,9,999999999,0,0,0,99,0.2,0,0
2023,7,17,5,60,9,26.1,24.8,92.0,101325,0,0,0,0,0,0,0,0,0,0,0,13.8,0,0,9999,77777,9,999999999,0,0,0,99,0.2,0,0
2023,7,17,6,60,9,26.1,24.3,90.0,101325,0,0,0,0,0,0,0,0,0,0,0,17.0,0,0,9999,77777,9,999999999,0,0,0,99,0.2,0,0
2023,7,17,7,60,9,27.1,24.6,86.0,101325,0,0,0,0,0,0,0,0,0,0,0,16.4,0,0,9999,77777,9,999999999,0,0,0,99,0.2,0,0
2023,7,17,8,60,9,26.2,24.5,90.0,101325,0,0,0,0,0,0,0,0,0,0,0,18.7,0,0,9999,77777,9,999999999,0,0,0,99,0.2,0,0
2023,7,17,9,60,9,27.4,24.8,86.0,101325,0,0,0,0,0,0,0,0,0,0,0,18.4,0,0,9999,77777,9,999999999,0,0,0,99,0.2,0,0
2023,7,17,10,60,9,26.0,24.4,91.0,101325,0,0,0,0,0,0,0,0,0,0,0,18.9,0,0,9999,77777,9,999999999,0,0,0,99,0.2,0,0
2023,7,17,11,60,9,26.4,24.5,90.0,101325,0,0,0,0,0,0,0,0,0,0,0,19.7,0,0,9999,77777,9,999999999,0,0,0,99,0.2,0,0
2023,7,17,12,60,9,26.4,24.7,91.0,101325,0,0,0,0,0,0,0,0,0,0,0,17.0,0,0,9999,77777,9,999999999,0,0,0,99,0.2,0,0
2023,7,17,13,60,9,26.4,24.5,90.0,101325,0,0,0,0,0,0,0,0,0,0,0,13.7,0,0,9999,77777,9,999999999,0,0,0,99,0.2,0,0
2023,7,17,14,60,9,25.8,24.6,93.0,101325,0,0,0,0,0,0,0,0,0,0,0,16.7,0,0,9999,77777,9,999999999,0,0,0,99,0.2,0,0
2023,7,17,15,60,9,25.0,24.2,95.0,101325,0,0,0,0,0,0,0,0,0,0,0,12.1,0,0,9999,77777,9,999999999,0,0,0,99,0.2,0,0
2023,7,17,16,60,9,25.7,24.2,91.0,101325,0,0,0,0,0,0,0,0,0,0,0,14.8,0,0,9999,77777,9,999999999,0,0,0,99,0.2,0,0
2023,7,17,17,60,9,25.9,24.3,91.0,101325,0,0,0,0,0,0,0,0,0,0,0,15.6,0,0,9999,77777,9,999999999,0,0,0,99,0.2,0,0
2023,7,17,18,60,9,26.2,24.6,91.0,101325,0,0,0,0,0,0,0,0,0,0,0,15.9,0,0,9999,77777,9,999999999,0,0,0,99,0.2,0,0
2023,7,17,19,60,9,25.8,24.5,93.0,101325,0,0,0,0,0,0,0,0,0,0,0,18.7,0,0,9999,77777,9,999999999,0,0,0,99,0.2,0,0
2023,7,17,20,60,9,26.2,24.7,91.0,101325,0,0,0,0,0,0,0,0,0,0,0,15.2,0,0,9999,77777,9,999999999,0,0,0,99,0.2,0,0
2023,7,17,21,60,9,25.9,24.6,92.0,101325,0,0,0,0,0,0,0,0,0,0,0,17.1,0,0,9999,77777,9,999999999,0,0,0,99,0.2,0,0
2023,7,17,22,60,9,25.6,24.2,92.0,101325,0,0,0,0,0,0,0,0,0,0,0,18.3,0,0,9999,77777,9,999999999,0,0,0,99,0.2,0,0
2023,7,17,23,60,9,25.7,24.3,92.0,101325,0,0,0,0,0,0,0,0,0,0,0,19.3,0,0,9999,77777,9,999999999,0,0,0,99,0.2,0,0
2023,7,17,24,60,9,25.7,24.3,92.0,101325,0,0,0,0,0,0,0,0,0,0,0,18.1,0,0,9999,77777,9,999999999,0,0,0,99,0.2,0,0
2023,7,18,1,60,9,25.4,23.7,90.0,101325,0,0,0,0,0,0,0,0,0,0,0,17.5,0,0,9999,77777,9,999999999,0,0,0,99,0.2,0,0
2023,7,18,2,60,9,25.6,24.3,92.0,101325,0,0,0,0,0,0,0,0,0,0,0,16.7,0,0,9999,77777,9,999999999,0,0,0,99,0.2,0,0
2023,7,18,3,60,9,25.5,24.2,93.0,101325,0,0,0,0,0,0,0,0,0,0,0,18.0,0,0,9999,77777,9,999999999,0,0,0,99,0.2,0,0
2023,7,18,4,60,9,26.1,24.7,92.0,101325,0,0,0,0,0,0,0,0,0,0,0,18.1,0,0,9999,77777,9,999999999,0,0,0,99,0.2,0,0
2023,7,18,5,60,9,26.0,24.8,93.0,101325,0,0,0,0,0,0,0,0,0,0,0,20.4,0,0,9999,77777,9,999999999,0,0,0,99,0.2,0,0
2023,7,18,6,60,9,25.8,24.6,93.0,101325,0,0,0,0,0,0,0,0,0,0,0,24.2,0,0,9999,77777,9,999999999,0,0,0,99,0.2,0,0
2023,7,18,7,60,9,26.3,25.0,93.0,101325,0,0,0,0,0,0,0,0,0,0,0,22.5,0,0,9999,77777,9,999999999,0,0,0,99,0.2,0,0
2023,7,18,8,60,9,26.2,24.8,92.0,101325,0,0,0,0,0,0,0,0,0,0,0,25.3,0,0,9999,77777,9,999999999,0,0,0,99,0.2,0,0
2023,7,18,9,60,9,26.4,24.4,89.0,101325,0,0,0,0,0,0,0,0,0,0,0,24.6,0,0,9999,77777,9,999999999,0,0,0,99,0.2,0,0
2023,7,18,10,60,9,26.2,24.6,91.0,101325,0,0,0,0,0,0,0,0,0,0,0,22.8,0,0,9999,77777,9,999999999,0,0,0,99,0.2,0,0
2023,7,18,11,60,9,26.0,24.6,92.0,101325,0,0,0,0,0,0,0,0,0,0,0,25.1,0,0,9999,77777,9,999999999,0,0,0,99,0.2,0,0
2023,7,18,12,60,9,25.7,24.2,91.0,101325,0,0,0,0,0,0,0,0,0,0,0,21.7,0,0,9999,77777,9,999999999,0,0,0,99,0.2,0,0
2023,7,18,13,60,9,26.2,24.2,89.0,101325,0,0,0,0,0,0,0,0,0,0,0,24.4,0,0,9999,77777,9,999999999,0,0,0,99,0.2,0,0
2023,7,18,14,60,9,26.0,24.2,90.0,101325,0,0,0,0,0,0,0,0,0,0,0,21.4,0,0,9999,77777,9,999999999,0,0,0,99,0.2,0,0
2023,7,18,15,60,9,25.8,24.2,91.0,101325,0,0,0,0,0,0,0,0,0,0,0,21.7,0,0,9999,77777,9,999999999,0,0,0,99,0.2,0,0
2023,7,18,16,60,9,25.9,24.4,92.0,101325,0,0,0,0,0,0,0,0,0,0,0,18.2,0,0,9999,77777,9,999999999,0,0,0,99,0.2,0,0
2023,7,18,17,60,9,25.8,24.1,90.0,101325,0,0,0,0,0,0,0,0,0,0,0,17.8,0,0,9999,77777,9,999999999,0,0,0,99,0.2,0,0
2023,7,18,18,60,9,25.7,24.1,91.0,101325,0,0,0,0,0,0,0,0,0,0,0,18.3,0,0,9999,77777,9,999999999,0,0,0,99,0.2,0,0
2023,7,18,19,60,9,25.7,24.0,90.0,101325,0,0,0,0,0,0,0,0,0,0,0,18.3,0,0,9999,77777,9,999999999,0,0,0,99,0.2,0,0
2023,7,18,20,60,9,25.8,24.3,91.0,101325,0,0,0,0,0,0,0,0,0,0,0,16.1,0,0,9999,77777,9,999999999,0,0,0,99,0.2,0,0
2023,7,18,21,60,9,25.5,24.3,93.0,101325,0,0,0,0,0,0,0,0,0,0,0,20.8,0,0,9999,77777,9,999999999,0,0,0,99,0.2,0,0
2023,7,18,22,60,9,25.5,24.0,91.0,101325,0,0,0,0,0,0,0,0,0,0,0,18.9,0,0,9999,77777,9,999999999,0,0,0,99,0.2,0,0
2023,7,18,23,60,9,26.0,24.5,92.0,101325,0,0,0,0,0,0,0,0,0,0,0,14.8,0,0,9999,77777,9,999999999,0,0,0,99,0.2,0,0
2023,7,18,24,60,9,25.6,24.2,92.0,101325,0,0,0,0,0,0,0,0,0,0,0,16.7,0,0,9999,77777,9,999999999,0,0,0,99,0.2,0,0
2023,7,19,1,60,9,25.8,24.1,90.0,101325,0,0,0,0,0,0,0,0,0,0,0,18.5,0,0,9999,77777,9,999999999,0,0,0,99,0.2,0,0
2023,7,19,2,60,9,26.2,24.1,88.0,101325,0,0,0,0,0,0,0,0,0,0,0,16.7,0,0,9999,77777,9,999999999,0,0,0,99,0.2,0,0
2023,7,19,3,60,9,25.9,24.6,92.0,101325,0,0,0,0,0,0,0,0,0,0,0,19.7,0,0,9999,77777,9,999999999,0,0,0,99,0.2,0,0
2023,7,19,4,60,9,26.3,24.4,89.0,101325,0,0,0,0,0,0,0,0,0,0,0,21.2,0,0,9999,77777,9,999999999,0,0,0,99,0.2,0,0
2023,7,19,5,60,9,26.4,24.9,91.0,101325,0,0,0,0,0,0,0,0,0,0,0,21.0,0,0,9999,77777,9,999999999,0,0,0,99,0.2,0,0
2023,7,19,6,60,9,27.3,24.6,85.0,101325,0,0,0,0,0,0,0,0,0,0,0,23.7,0,0,9999,77777,9,999999999,0,0,0,99,0.2,0,0
2023,7,19,7,60,9,26.5,25.0,92.0,101325,0,0,0,0,0,0,0,0,0,0,0,22.7,0,0,9999,77777,9,999999999,0,0,0,99,0.2,0,0
2023,7,19,8,60,9,27.3,24.7,86.0,101325,0,0,0,0,0,0,0,0,0,0,0,22.3,0,0,9999,77777,9,999999999,0,0,0,99,0.2,0,0
2023,7,19,9,60,9,26.6,25.1,91.0,101325,0,0,0,0,0,0,0,0,0,0,0,20.2,0,0,9999,77777,9,999999999,0,0,0,99,0.2,0,0
2023,7,19,10,60,9,26.7,25.0,90.0,101325,0,0,0,0,0,0,0,0,0,0,0,18.2,0,0,9999,77777,9,999999999,0,0,0,99,0.2,0,0
2023,7,19,11,60,9,27.1,24.6,86.0,101325,0,0,0,0,0,0,0,0,0,0,0,21.4,0,0,9999,77777,9,999999999,0,0,0,99,0.2,0,0
2023,7,19,12,60,9,26.1,24.8,92.0,101325,0,0,0,0,0,0,0,0,0,0,0,21.0,0,0,9999,77777,9,999999999,0,0,0,99,0.2,0,0
2023,7,19,13,60,9,26.1,24.4,91.0,101325,0,0,0,0,0,0,0,0,0,0,0,20.8,0,0,9999,77777,9,999999999,0,0,0,99,0.2,0,0
2023,7,19,14,60,9,26.2,24.5,91.0,101325,0,0,0,0,0,0,0,0,0,0,0,18.5,0,0,9999,77777,9,999999999,0,0,0,99,0.2,0,0
2023,7,19,15,60,9,26.0,24.6,92.0,101325,0,0,0,0,0,0,0,0,0,0,0,18.8,0,0,9999,77777,9,999999999,0,0,0,99,0.2,0,0
2023,7,19,16,60,9,26.1,24.7,92.0,101325,0,0,0,0,0,0,0,0,0,0,0,18.7,0,0,9999,77777,9,999999999,0,0,0,99,0.2,0,0
2023,7,19,17,60,9,25.7,24.6,93.0,101325,0,0,0,0,0,0,0,0,0,0,0,20.5,0,0,9999,77777,9,999999999,0,0,0,99,0.2,0,0
2023,7,19,18,60,9,26.0,24.4,91.0,101325,0,0,0,0,0,0,0,0,0,0,0,20.2,0,0,9999,77777,9,999999999,0,0,0,99,0.2,0,0
2023,7,19,19,60,9,26.0,24.6,92.0,101325,0,0,0,0,0,0,0,0,0,0,0,19.2,0,0,9999,77777,9,999999999,0,0,0,99,0.2,0,0
2023,7,19,20,60,9,25.7,24.8,95.0,101325,0,0,0,0,0,0,0,0,0,0,0,19.8,0,0,9999,77777,9,999999999,0,0,0,99,0.2,0,0
2023,7,19,21,60,9,26.0,24.2,90.0,101325,0,0,0,0,0,0,0,0,0,0,0,20.6,0,0,9999,77777,9,999999999,0,0,0,99,0.2,0,0
2023,7,19,22,60,9,26.0,24.5,91.0,101325,0,0,0,0,0,0,0,0,0,0,0,22.0,0,0,9999,77777,9,999999999,0,0,0,99,0.2,0,0
2023,7,19,23,60,9,26.1,24.5,91.0,101325,0,0,0,0,0,0,0,0,0,0,0,21.7,0,0,9999,77777,9,999999999,0,0,0,99,0.2,0,0
2023,7,19,24,60,9,25.9,24.4,91.0,101325,0,0,0,0,0,0,0,0,0,0,0,22.0,0,0,9999,77777,9,999999999,0,0,0,99,0.2,0,0
2023,7,20,1,60,9,26.0,24.1,89.0,101325,0,0,0,0,0,0,0,0,0,0,0,19.6,0,0,9999,77777,9,999999999,0,0,0,99,0.2,0,0
2023,7,20,2,60,9,25.5,24.1,92.0,101325,0,0,0,0,0,0,0,0,0,0,0,18.7,0,0,9999,77777,9,999999999,0,0,0,99,0.2,0,0
2023,7,20,3,60,9,25.8,24.2,91.0,101325,0,0,0,0,0,0,0,0,0,0,0,19.6,0,0,9999,77777,9,999999999,0,0,0,99,0.2,0,0
2023,7,20,4,60,9,25.7,24.4,92.0,101325,0,0,0,0,0,0,0,0,0,0,0,16.3,0,0,9999,77777,9,999999999,0,0,0,99,0.2,0,0
2023,7,20,5,60,9,26.7,24.8,89.0,101325,0,0,0,0,0,0,0,0,0,0,0,17.2,0,0,9999,77777,9,999999999,0,0,0,99,0.2,0,0
2023,7,20,6,60,9,27.6,24.8,85.0,101325,0,0,0,0,0,0,0,0,0,0,0,18.1,0,0,9999,77777,9,999999999,0,0,0,99,0.2,0,0
2023,7,20,7,60,9,27.9,24.4,81.0,101325,0,0,0,0,0,0,0,0,0,0,0,23.0,0,0,9999,77777,9,999999999,0,0,0,99,0.2,0,0
2023,7,20,8,60,9,26.2,24.8,92.0,101325,0,0,0,0,0,0,0,0,0,0,0,20.5,0,0,9999,77777,9,999999999,0,0,0,99,0.2,0,0
2023,7,20,9,60,9,27.5,24.8,85.0,101325,0,0,0,0,0,0,0,0,0,0,0,20.5,0,0,9999,77777,9,999999999,0,0,0,99,0.2,0,0
2023,7,20,10,60,9,27.3,24.0,82.0,101325,0,0,0,0,0,0,0,0,0,0,0,23.4,0,0,9999,77777,9,999999999,0,0,0,99,0.2,0,0
2023,7,20,11,60,9,27.0,24.7,87.0,101325,0,0,0,0,0,0,0,0,0,0,0,24.1,0,0,9999,77777,9,999999999,0,0,0,99,0.2,0,0
2023,7,20,12,60,9,27.0,24.5,86.0,101325,0,0,0,0,0,0,0,0,0,0,0,23.8,0,0,9999,77777,9,999999999,0,0,0,99,0.2,0,0
2023,7,20,13,60,9,27.5,24.6,84.0,101325,0,0,0,0,0,0,0,0,0,0,0,16.6,0,0,9999,77777,9,999999999,0,0,0,99,0.2,0,0
2023,7,20,14,60,9,26.1,23.9,88.0,101325,0,0,0,0,0,0,0,0,0,0,0,17.1,0,0,9999,77777,9,999999999,0,0,0,99,0.2,0,0
2023,7,20,15,60,9,26.3,23.7,85.0,101325,0,0,0,0,0,0,0,0,0,0,0,12.8,0,0,9999,77777,9,999999999,0,0,0,99,0.2,0,0
2023,7,20,16,60,9,26.7,23.7,84.0,101325,0,0,0,0,0,0,0,0,0,0,0,15.8,0,0,9999,77777,9,999999999,0,0,0,99,0.2,0,0
2023,7,20,17,60,9,26.0,24.1,90.0,101325,0,0,0,0,0,0,0,0,0,0,0,12.6,0,0,9999,77777,9,999999999,0,0,0,99,0.2,0,0
2023,7,20,18,60,9,26.4,23.7,85.0,101325,0,0,0,0,0,0,0,0,0,0,0,13.9,0,0,9999,77777,9,999999999,0,0,0,99,0.2,0,0
2023,7,20,19,60,9,25.7,24.0,91.0,101325,0,0,0,0,0,0,0,0,0,0,0,13.9,0,0,9999,77777,9,999999999,0,0,0,99,0.2,0,0
2023,7,20,20,60,9,25.7,24.1,91.0,101325,0,0,0,0,0,0,0,0,0,0,0,17.4,0,0,9999,77777,9,999999999,0,0,0,99,0.2,0,0
2023,7,20,21,60,9,25.4,24.1,92.0,101325,0,0,0,0,0,0,0,0,0,0,0,17.4,0,0,9999,77777,9,999999999,0,0,0,99,0.2,0,0
2023,7,20,22,60,9,25.8,24.1,90.0,101325,0,0,0,0,0,0,0,0,0,0,0,15.3,0,0,9999,77777,9,999999999,0,0,0,99,0.2,0,0
2023,7,20,23,60,9,25.4,23.9,92.0,101325,0,0,0,0,0,0,0,0,0,0,0,16.5,0,0,9999,77777,9,999999999,0,0,0,99,0.2,0,0
2023,7,20,24,60,9,25.8,24.2,91.0,101325,0,0,0,0,0,0,0,0,0,0,0,12.8,0,0,9999,77777,9,999999999,0,0,0,99,0.2,0,0
2023,7,21,1,60,9,26.2,24.5,90.0,101325,0,0,0,0,0,0,0,0,0,0,0,13.4,0,0,9999,77777,9,999999999,0,0,0,99,0.2,0,0
2023,7,21,2,60,9,26.1,24.5,91.0,101325,0,0,0,0,0,0,0,0,0,0,0,15.1,0,0,9999,77777,9,999999999,0,0,0,99,0.2,0,0
2023,7,21,3,60,9,26.3,25.1,93.0,101325,0,0,0,0,0,0,0,0,0,0,0,12.1,0,0,9999,77777,9,999999999,0,0,0,99,0.2,0,0
2023,7,21,4,60,9,26.8,24.4,87.0,101325,0,0,0,0,0,0,0,0,0,0,0,14.6,0,0,9999,77777,9,999999999,0,0,0,99,0.2,0,0
2023,7,21,5,60,9,26.3,24.4,89.0,101325,0,0,0,0,0,0,0,0,0,0,0,16.9,0,0,9999,77777,9,999999999,0,0,0,99,0.2,0,0
2023,7,21,6,60,9,27.0,24.1,84.0,101325,0,0,0,0,0,0,0,0,0,0,0,18.3,0,0,9999,77777,9,999999999,0,0,0,99,0.2,0,0
2023,7,21,7,60,9,27.3,24.8,86.0,101325,0,0,0,0,0,0,0,0,0,0,0,19.0,0,0,9999,77777,9,999999999,0,0,0,99,0.2,0,0
2023,7,21,8,60,9,27.0,24.4,86.0,101325,0,0,0,0,0,0,0,0,0,0,0,18.3,0,0,9999,77777,9,999999999,0,0,0,99,0.2,0,0
2023,7,21,9,60,9,27.5,25.0,86.0,101325,0,0,0,0,0,0,0,0,0,0,0,16.1,0,0,9999,77777,9,999999999,0,0,0,99,0.2,0,0
2023,7,21,10,60,9,26.3,24.5,90.0,101325,0,0,0,0,0,0,0,0,0,0,0,21.1,0,0,9999,77777,9,999999999,0,0,0,99,0.2,0,0
2023,7,21,11,60,9,27.1,24.8,87.0,101325,0,0,0,0,0,0,0,0,0,0,0,21.3,0,0,9999,77777,9,999999999,0,0,0,99,0.2,0,0
2023,7,21,12,60,9,27.3,24.7,86.0,101325,0,0,0,0,0,0,0,0,0,0,0,19.6,0,0,9999,77777,9,999999999,0,0,0,99,0.2,0,0
2023,7,21,13,60,9,26.7,24.8,89.0,101325,0,0,0,0,0,0,0,0,0,0,0,17.0,0,0,9999,77777,9,999999999,0,0,0,99,0.2,0,0
2023,7,21,14,60,9,26.2,24.6,91.0,101325,0,0,0,0,0,0,0,0,0,0,0,20.2,0,0,9999,77777,9,999999999,0,0,0,99,0.2,0,0
2023,7,21,15,60,9,26.4,24.6,90.0,101325,0,0,0,0,0,0,0,0,0,0,0,15.3,0,0,9999,77777,9,999999999,0,0,0,99,0.2,0,0
2023,7,21,16,60,9,26.1,24.6,91.0,101325,0,0,0,0,0,0,0,0,0,0,0,13.8,0,0,9999,77777,9,999999999,0,0,0,99,0.2,0,0
2023,7,21,17,60,9,26.5,24.4,89.0,101325,0,0,0,0,0,0,0,0,0,0,0,14.5,0,0,9999,77777,9,999999999,0,0,0,99,0.2,0,0
2023,7,21,18,60,9,25.9,24.4,91.0,101325,0,0,0,0,0,0,0,0,0,0,0,13.1,0,0,9999,77777,9,999999999,0,0,0,99,0.2,0,0
2023,7,21,19,60,9,25.9,24.4,91.0,101325,0,0,0,0,0,0,0,0,0,0,0,14.2,0,0,9999,77777,9,999999999,0,0,0,99,0.2,0,0
2023,7,21,20,60,9,26.1,24.4,90.0,101325,0,0,0,0,0,0,0,0,0,0,0,15.3,0,0,9999,77777,9,999999999,0,0,0,99,0.2,0,0
2023,7,21,21,60,9,25.5,23.9,91.0,101325,0,0,0,0,0,0,0,0,0,0,0,18.1,0,0,9999,77777,9,999999999,0,0,0,99,0.2,0,0
2023,7,21,22,60,9,25.9,24.2,90.0,101325,0,0,0,0,0,0,0,0,0,0,0,13.4,0,0,9999,77777,9,999999999,0,0,0,99,0.2,0,0
2023,7,21,23,60,9,26.3,24.3,89.0,101325,0,0,0,0,0,0,0,0,0,0,0,18.5,0,0,9999,77777,9,999999999,0,0,0,99,0.2,0,0
2023,7,21,24,60,9,25.4,23.9,91.0,101325,0,0,0,0,0,0,0,0,0,0,0,20.3,0,0,9999,77777,9,999999999,0,0,0,99,0.2,0,0
2023,7,22,1,60,9,25.9,24.2,90.0,101325,0,0,0,0,0,0,0,0,0,0,0,18.4,0,0,9999,77777,9,999999999,0,0,0,99,0.2,0,0
2023,7,22,2,60,9,25.8,24.5,93.0,101325,0,0,0,0,0,0,0,0,0,0,0,20.6,0,0,9999,77777,9,999999999,0,0,0,99,0.2,0,0
2023,7,22,3,60,9,26.1,24.5,91.0,101325,0,0,0,0,0,0,0,0,0,0,0,17.8,0,0,9999,77777,9,999999999,0,0,0,99,0.2,0,0
2023,7,22,4,60,9,26.1,24.6,91.0,101325,0,0,0,0,0,0,0,0,0,0,0,17.2,0,0,9999,77777,9,999999999,0,0,0,99,0.2,0,0
2023,7,22,5,60,9,25.8,24.6,93.0,101325,0,0,0,0,0,0,0,0,0,0,0,18.9,0,0,9999,77777,9,999999999,0,0,0,99,0.2,0,0
2023,7,22,6,60,9,26.3,24.6,90.0,101325,0,0,0,0,0,0,0,0,0,0,0,18.9,0,0,9999,77777,9,999999999,0,0,0,99,0.2,0,0
2023,7,22,7,60,9,26.4,24.8,91.0,101325,0,0,0,0,0,0,0,0,0,0,0,21.3,0,0,9999,77777,9,999999999,0,0,0,99,0.2,0,0
2023,7,22,8,60,9,26.4,25.1,92.0,101325,0,0,0,0,0,0,0,0,0,0,0,19.7,0,0,9999,77777,9,999999999,0,0,0,99,0.2,0,0
2023,7,22,9,60,9,26.4,24.9,91.0,101325,0,0,0,0,0,0,0,0,0,0,0,20.2,0,0,9999,77777,9,999999999,0,0,0,99,0.2,0,0
2023,7,22,10,60,9,26.2,24.8,92.0,101325,0,0,0,0,0,0,0,0,0,0,0,17.5,0,0,9999,77777,9,999999999,0,0,0,99,0.2,0,0
2023,7,22,11,60,9,26.1,24.3,90.0,101325,0,0,0,0,0,0,0,0,0,0,0,19.6,0,0,9999,77777,9,999999999,0,0,0,99,0.2,0,0
2023,7,22,12,60,9,26.1,24.5,91.0,101325,0,0,0,0,0,0,0,0,0,0,0,21.3,0,0,9999,77777,9,999999999,0,0,0,99,0.2,0,0
2023,7,22,13,60,9,26.2,24.2,89.0,101325,0,0,0,0,0,0,0,0,0,0,0,18.0,0,0,9999,77777,9,999999999,0,0,0,99,0.2,0,0
2023,7,22,14,60,9,25.3,24.2,93.0,101325,0,0,0,0,0,0,0,0,0,0,0,17.4,0,0,9999,77777,9,999999999,0,0,0,99,0.2,0,0
2023,7,22,15,60,9,25.7,24.1,91.0,101325,0,0,0,0,0,0,0,0,0,0,0,16.2,0,0,9999,77777,9,999999999,0,0,0,99,0.2,0,0
2023,7,22,16,60,9,25.1,23.9,93.0,101325,0,0,0,0,0,0,0,0,0,0,0,16.7,0,0,9999,77777,9,999999999,0,0,0,99,0.2,0,0
2023,7,22,17,60,9,25.6,24.1,91.0,101325,0,0,0,0,0,0,0,0,0,0,0,16.2,0,0,9999,77777,9,999999999,0,0,0,99,0.2,0,0
2023,7,22,18,60,9,25.4,24.0,92.0,101325,0,0,0,0,0,0,0,0,0,0,0,18.7,0,0,9999,77777,9,999999999,0,0,0,99,0.2,0,0
2023,7,22,19,60,9,25.5,24.2,92.0,101325,0,0,0,0,0,0,0,0,0,0,0,14.8,0,0,9999,77777,9,999999999,0,0,0,99,0.2,0,0
2023,7,22,20,60,9,25.4,24.1,92.0,101325,0,0,0,0,0,0,0,0,0,0,0,18.8,0,0,9999,77777,9,999999999,0,0,0,99,0.2,0,0
2023,7,22,21,60,9,25.5,24.1,92.0,101325,0,0,0,0,0,0,0,0,0,0,0,17.9,0,0,9999,77777,9,999999999,0,0,0,99,0.2,0,0
2023,7,22,22,60,9,25.4,24.1,93.0,101325,0,0,0,0,0,0,0,0,0,0,0,18.5,0,0,9999,77777,9,999999999,0,0,0,99,0.2,0,0
2023,7,22,23,60,9,25.7,24.2,91.0,101325,0,0,0,0,0,0,0,0,0,0,0,19.3,0,0,9999,77777,9,999999999,0,0,0,99,0.2,0,0
2023,7,22,24,60,9,25.7,24.2,91.0,101325,0,0,0,0,0,0,0,0,0,0,0,21.5,0,0,9999,77777,9,999999999,0,0,0,99,0.2,0,0
2023,7,23,1,60,9,25.9,24.2,91.0,101325,0,0,0,0,0,0,0,0,0,0,0,15.6,0,0,9999,77777,9,999999999,0,0,0,99,0.2,0,0
2023,7,23,2,60,9,25.9,24.3,91.0,101325,0,0,0,0,0,0,0,0,0,0,0,16.5,0,0,9999,77777,9,999999999,0,0,0,99,0.2,0,0
2023,7,23,3,60,9,25.8,24.5,93.0,101325,0,0,0,0,0,0,0,0,0,0,0,18.8,0,0,9999,77777,9,999999999,0,0,0,99,0.2,0,0
2023,7,23,4,60,9,26.5,24.8,90.0,101325,0,0,0,0,0,0,0,0,0,0,0,18.0,0,0,9999,77777,9,999999999,0,0,0,99,0.2,0,0
2023,7,23,5,60,9,27.1,24.6,86.0,101325,0,0,0,0,0,0,0,0,0,0,0,23.9,0,0,9999,77777,9,999999999,0,0,0,99,0.2,0,0
2023,7,23,6,60,9,26.8,24.1,85.0,101325,0,0,0,0,0,0,0,0,0,0,0,28.1,0,0,9999,77777,9,999999999,0,0,0,99,0.2,0,0
2023,7,23,7,60,9,26.4,24.8,91.0,101325,0,0,0,0,0,0,0,0,0,0,0,24.6,0,0,9999,77777,9,999999999,0,0,0,99,0.2,0,0
2023,7,23,8,60,9,27.7,24.8,84.0,101325,0,0,0,0,0,0,0,0,0,0,0,26.8,0,0,9999,77777,9,999999999,0,0,0,99,0.2,0,0
2023,7,23,9,60,9,27.2,24.6,86.0,101325,0,0,0,0,0,0,0,0,0,0,0,24.3,0,0,9999,77777,9,999999999,0,0,0,99,0.2,0,0
2023,7,23,10,60,9,27.3,25.0,88.0,101325,0,0,0,0,0,0,0,0,0,0,0,25.3,0,0,9999,77777,9,999999999,0,0,0,99,0.2,0,0
2023,7,23,11,60,9,27.0,24.7,87.0,101325,0,0,0,0,0,0,0,0,0,0,0,26.9,0,0,9999,77777,9,999999999,0,0,0,99,0.2,0,0
2023,7,23,12,60,9,26.5,24.2,87.0,101325,0,0,0,0,0,0,0,0,0,0,0,27.7,0,0,9999,77777,9,999999999,0,0,0,99,0.2,0,0
2023,7,23,13,60,9,26.3,24.3,89.0,101325,0,0,0,0,0,0,0,0,0,0,0,22.0,0,0,9999,77777,9,999999999,0,0,0,99,0.2,0,0
2023,7,23,14,60,9,26.2,24.0,88.0,101325,0,0,0,0,0,0,0,0,0,0,0,20.7,0,0,9999,77777,9,999999999,0,0,0,99,0.2,0,0
2023,7,23,15,60,9,25.4,23.9,92.0,101325,0,0,0,0,0,0,0,0,0,0,0,20.9,0,0,9999,77777,9,999999999,0,0,0,99,0.2,0,0
2023,7,23,16,60,9,25.9,24.3,91.0,101325,0,0,0,0,0,0,0,0,0,0,0,19.8,0,0,9999,77777,9,999999999,0,0,0,99,0.2,0,0
2023,7,23,17,60,9,25.8,24.4,92.0,101325,0,0,0,0,0,0,0,0,0,0,0,19.3,0,0,9999,77777,9,999999999,0,0,0,99,0.2,0,0
2023,7,23,18,60,9,25.7,24.3,92.0,101325,0,0,0,0,0,0,0,0,0,0,0,19.8,0,0,9999,77777,9,999999999,0,0,0,99,0.2,0,0
2023,7,23,19,60,9,25.8,24.2,91.0,101325,0,0,0,0,0,0,0,0,0,0,0,17.7,0,0,9999,77777,9,999999999,0,0,0,99,0.2,0,0
2023,7,23,20,60,9,25.8,24.2,91.0,101325,0,0,0,0,0,0,0,0,0,0,0,20.3,0,0,9999,77777,9,999999999,0,0,0,99,0.2,0,0
2023,7,23,21,60,9,25.7,24.3,92.0,101325,0,0,0,0,0,0,0,0,0,0,0,22.2,0,0,9999,77777,9,999999999,0,0,0,99,0.2,0,0
2023,7,23,22,60,9,25.8,24.2,91.0,101325,0,0,0,0,0,0,0,0,0,0,0,25.0,0,0,9999,77777,9,999999999,0,0,0,99,0.2,0,0
2023,7,23,23,60,9,25.7,24.1,91.0,101325,0,0,0,0,0,0,0,0,0,0,0,25.9,0,0,9999,77777,9,999999999,0,0,0,99,0.2,0,0
2023,7,23,24,60,9,25.4,24.0,92.0,101325,0,0,0,0,0,0,0,0,0,0,0,25.1,0,0,9999,77777,9,999999999,0,0,0,99,0.2,0,0
2023,7,24,1,60,9,25.9,24.2,90.0,101325,0,0,0,0,0,0,0,0,0,0,0,23.0,0,0,9999,77777,9,999999999,0,0,0,99,0.2,0,0
2023,7,24,2,60,9,26.2,24.7,91.0,101325,0,0,0,0,0,0,0,0,0,0,0,18.4,0,0,9999,77777,9,999999999,0,0,0,99,0.2,0,0
2023,7,24,3,60,9,25.7,24.3,92.0,101325,0,0,0,0,0,0,0,0,0,0,0,21.1,0,0,9999,77777,9,999999999,0,0,0,99,0.2,0,0
2023,7,24,4,60,9,25.8,24.3,91.0,101325,0,0,0,0,0,0,0,0,0,0,0,20.8,0,0,9999,77777,9,999999999,0,0,0,99,0.2,0,0
2023,7,24,5,60,9,25.8,23.9,89.0,101325,0,0,0,0,0,0,0,0,0,0,0,24.5,0,0,9999,77777,9,999999999,0,0,0,99,0.2,0,0
2023,7,24,6,60,9,25.8,24.3,92.0,101325,0,0,0,0,0,0,0,0,0,0,0,18.5,0,0,9999,77777,9,999999999,0,0,0,99,0.2,0,0
2023,7,24,7,60,9,26.0,24.3,90.0,101325,0,0,0,0,0,0,0,0,0,0,0,23.6,0,0,9999,77777,9,999999999,0,0,0,99,0.2,0,0
2023,7,24,8,60,9,27.3,24.8,86.0,101325,0,0,0,0,0,0,0,0,0,0,0,22.6,0,0,9999,77777,9,999999999,0,0,0,99,0.2,0,0
2023,7,24,9,60,9,28.1,24.5,81.0,101325,0,0,0,0,0,0,0,0,0,0,0,25.4,0,0,9999,77777,9,999999999,0,0,0,99,0.2,0,0
2023,7,24,10,60,9,27.8,24.6,83.0,101325,0,0,0,0,0,0,0,0,0,0,0,26.8,0,0,9999,77777,9,999999999,0,0,0,99,0.2,0,0
2023,7,24,11,60,9,27.3,24.4,84.0,101325,0,0,0,0,0,0,0,0,0,0,0,26.1,0,0,9999,77777,9,999999999,0,0,0,99,0.2,0,0
2023,7,24,12,60,9,27.0,24.2,85.0,101325,0,0,0,0,0,0,0,0,0,0,0,26.3,0,0,9999,77777,9,999999999,0,0,0,99,0.2,0,0
2023,7,24,13,60,9,26.1,24.2,89.0,101325,0,0,0,0,0,0,0,0,0,0,0,18.6,0,0,9999,77777,9,999999999,0,0,0,99,0.2,0,0
2023,7,24,14,60,9,26.2,24.1,88.0,101325,0,0,0,0,0,0,0,0,0,0,0,20.5,0,0,9999,77777,9,999999999,0,0,0,99,0.2,0,0
2023,7,24,15,60,9,26.2,24.1,88.0,101325,0,0,0,0,0,0,0,0,0,0,0,14.2,0,0,9999,77777,9,999999999,0,0,0,99,0.2,0,0
2023,7,24,16,60,9,25.7,24.1,91.0,101325,0,0,0,0,0,0,0,0,0,0,0,14.7,0,0,9999,77777,9,999999999,0,0,0,99,0.2,0,0
2023,7,24,17,60,9,25.4,24.4,94.0,101325,0,0,0,0,0,0,0,0,0,0,0,14.8,0,0,9999,77777,9,999999999,0,0,0,99,0.2,0,0
2023,7,24,18,60,9,25.7,24.3,92.0,101325,0,0,0,0,0,0,0,0,0,0,0,13.0,0,0,9999,77777,9,999999999,0,0,0,99,0.2,0,0
2023,7,24,19,60,9,25.3,24.1,93.0,101325,0,0,0,0,0,0,0,0,0,0,0,15.4,0,0,9999,77777,9,999999999,0,0,0,99,0.2,0,0
2023,7,24,20,60,9,25.4,23.9,92.0,101325,0,0,0,0,0,0,0,0,0,0,0,16.9,0,0,9999,77777,9,999999999,0,0,0,99,0.2,0,0
2023,7,24,21,60,9,25.2,24.0,93.0,101325,0,0,0,0,0,0,0,0,0,0,0,17.0,0,0,9999,77777,9,999999999,0,0,0,99,0.2,0,0
2023,7,24,22,60,9,25.4,24.0,92.0,101325,0,0,0,0,0,0,0,0,0,0,0,17.1,0,0,9999,77777,9,999999999,0,0,0,99,0.2,0,0
2023,7,24,23,60,9,25.2,24.0,93.0,101325,0,0,0,0,0,0,0,0,0,0,0,16.4,0,0,9999,77777,9,999999999,0,0,0,99,0.2,0,0
2023,7,24,24,60,9,25.6,24.1,91.0,101325,0,0,0,0,0,0,0,0,0,0,0,16.9,0,0,9999,77777,9,999999999,0,0,0,99,0.2,0,0
2023,7,25,1,60,9,26.2,24.5,90.0,101325,0,0,0,0,0,0,0,0,0,0,0,13.6,0,0,9999,77777,9,999999999,0,0,0,99,0.2,0,0
2023,7,25,2,60,9,25.6,24.2,92.0,101325,0,0,0,0,0,0,0,0,0,0,0,17.2,0,0,9999,77777,9,999999999,0,0,0,99,0.2,0,0
2023,7,25,3,60,9,25.9,24.3,91.0,101325,0,0,0,0,0,0,0,0,0,0,0,15.9,0,0,9999,77777,9,999999999,0,0,0,99,0.2,0,0
2023,7,25,4,60,9,26.4,24.5,89.0,101325,0,0,0,0,0,0,0,0,0,0,0,16.1,0,0,9999,77777,9,999999999,0,0,0,99,0.2,0,0
2023,7,25,5,60,9,26.2,23.7,86.0,101325,0,0,0,0,0,0,0,0,0,0,0,15.6,0,0,9999,77777,9,999999999,0,0,0,99,0.2,0,0
2023,7,25,6,60,9,26.3,24.7,91.0,101325,0,0,0,0,0,0,0,0,0,0,0,15.0,0,0,9999,77777,9,999999999,0,0,0,99,0.2,0,0
2023,7,25,7,60,9,27.2,24.5,85.0,101325,0,0,0,0,0,0,0,0,0,0,0,16.9,0,0,9999,77777,9,999999999,0,0,0,99,0.2,0,0
2023,7,25,8,60,9,26.7,24.3,87.0,101325,0,0,0,0,0,0,0,0,0,0,0,18.5,0,0,9999,77777,9,999999999,0,0,0,99,0.2,0,0
2023,7,25,9,60,9,26.4,24.2,88.0,101325,0,0,0,0,0,0,0,0,0,0,0,19.4,0,0,9999,77777,9,999999999,0,0,0,99,0.2,0,0
2023,7,25,10,60,9,25.8,24.3,91.0,101325,0,0,0,0,0,0,0,0,0,0,0,20.9,0,0,9999,77777,9,999999999,0,0,0,99,0.2,0,0
2023,7,25,11,60,9,25.7,24.5,93.0,101325,0,0,0,0,0,0,0,0,0,0,0,16.6,0,0,9999,77777,9,999999999,0,0,0,99,0.2,0,0
2023,7,25,12,60,9,25.8,24.3,91.0,101325,0,0,0,0,0,0,0,0,0,0,0,20.8,0,0,9999,77777,9,999999999,0,0,0,99,0.2,0,0
2023,7,25,13,60,9,25.7,23.9,90.0,101325,0,0,0,0,0,0,0,0,0,0,0,21.1,0,0,9999,77777,9,999999999,0,0,0,99,0.2,0,0
2023,7,25,14,60,9,25.8,24.2,91.0,101325,0,0,0,0,0,0,0,0,0,0,0,19.4,0,0,9999,77777,9,999999999,0,0,0,99,0.2,0,0
2023,7,25,15,60,9,26.1,24.1,89.0,101325,0,0,0,0,0,0,0,0,0,0,0,18.4,0,0,9999,77777,9,999999999,0,0,0,99,0.2,0,0
2023,7,25,16,60,9,26.1,24.0,88.0,101325,0,0,0,0,0,0,0,0,0,0,0,16.3,0,0,9999,77777,9,999999999,0,0,0,99,0.2,0,0
2023,7,25,17,60,9,26.0,24.2,90.0,101325,0,0,0,0,0,0,0,0,0,0,0,14.7,0,0,9999,77777,9,999999999,0,0,0,99,0.2,0,0
2023,7,25,18,60,9,25.6,24.3,93.0,101325,0,0,0,0,0,0,0,0,0,0,0,13.7,0,0,9999,77777,9,999999999,0,0,0,99,0.2,0,0
2023,7,25,19,60,9,25.7,24.2,92.0,101325,0,0,0,0,0,0,0,0,0,0,0,13.4,0,0,9999,77777,9,999999999,0,0,0,99,0.2,0,0
2023,7,25,20,60,9,25.3,24.4,95.0,101325,0,0,0,0,0,0,0,0,0,0,0,16.2,0,0,9999,77777,9,999999999,0,0,0,99,0.2,0,0
2023,7,25,21,60,9,25.5,24.1,92.0,101325,0,0,0,0,0,0,0,0,0,0,0,15.3,0,0,9999,77777,9,999999999,0,0,0,99,0.2,0,0
2023,7,25,22,60,9,25.0,23.8,93.0,101325,0,0,0,0,0,0,0,0,0,0,0,15.7,0,0,9999,77777,9,999999999,0,0,0,99,0.2,0,0
2023,7,25,23,60,9,25.1,23.8,93.0,101325,0,0,0,0,0,0,0,0,0,0,0,14.8,0,0,9999,77777,9,999999999,0,0,0,99,0.2,0,0
2023,7,25,24,60,9,24.8,23.8,94.0,101325,0,0,0,0,0,0,0,0,0,0,0,9.4,0,0,9999,77777,9,999999999,0,0,0,99,0.2,0,0
2023,7,26,1,60,9,25.5,23.9,91.0,101325,0,0,0,0,0,0,0,0,0,0,0,10.0,0,0,9999,77777,9,999999999,0,0,0,99,0.2,0,0
2023,7,26,2,60,9,25.7,24.3,92.0,101325,0,0,0,0,0,0,0,0,0,0,0,10.8,0,0,9999,77777,9,999999999,0,0,0,99,0.2,0,0
2023,7,26,3,60,9,25.8,24.4,92.0,101325,0,0,0,0,0,0,0,0,0,0,0,12.3,0,0,9999,77777,9,999999999,0,0,0,99,0.2,0,0
2023,7,26,4,60,9,25.6,24.3,93.0,101325,0,0,0,0,0,0,0,0,0,0,0,14.8,0,0,9999,77777,9,999999999,0,0,0,99,0.2,0,0
2023,7,26,5,60,9,26.0,24.1,89.0,101325,0,0,0,0,0,0,0,0,0,0,0,17.4,0,0,9999,77777,9,999999999,0,0,0,99,0.2,0,0
2023,7,26,6,60,9,26.2,24.3,89.0,101325,0,0,0,0,0,0,0,0,0,0,0,15.4,0,0,9999,77777,9,999999999,0,0,0,99,0.2,0,0
2023,7,26,7,60,9,26.5,23.9,86.0,101325,0,0,0,0,0,0,0,0,0,0,0,17.4,0,0,9999,77777,9,999999999,0,0,0,99,0.2,0,0
2023,7,26,8,60,9,27.1,24.3,85.0,101325,0,0,0,0,0,0,0,0,0,0,0,20.5,0,0,9999,77777,9,999999999,0,0,0,99,0.2,0,0
2023,7,26,9,60,9,26.3,23.9,87.0,101325,0,0,0,0,0,0,0,0,0,0,0,23.6,0,0,9999,77777,9,999999999,0,0,0,99,0.2,0,0
2023,7,26,10,60,9,26.5,24.7,90.0,101325,0,0,0,0,0,0,0,0,0,0,0,23.2,0,0,9999,77777,9,999999999,0,0,0,99,0.2,0,0
2023,7,26,11,60,9,26.6,24.3,87.0,101325,0,0,0,0,0,0,0,0,0,0,0,25.2,0,0,9999,77777,9,999999999,0,0,0,99,0.2,0,0
2023,7,26,12,60,9,26.4,24.3,88.0,101325,0,0,0,0,0,0,0,0,0,0,0,24.6,0,0,9999,77777,9,999999999,0,0,0,99,0.2,0,0
2023,7,26,13,60,9,26.2,24.4,90.0,101325,0,0,0,0,0,0,0,0,0,0,0,24.5,0,0,9999,77777,9,999999999,0,0,0,99,0.2,0,0
2023,7,26,14,60,9,25.9,24.3,91.0,101325,0,0,0,0,0,0,0,0,0,0,0,26.3,0,0,9999,77777,9,999999999,0,0,0,99,0.2,0,0
2023,7,26,15,60,9,25.8,24.4,92.0,101325,0,0,0,0,0,0,0,0,0,0,0,22.3,0,0,9999,77777,9,999999999,0,0,0,99,0.2,0,0
2023,7,26,16,60,9,25.7,24.3,92.0,101325,0,0,0,0,0,0,0,0,0,0,0,23.1,0,0,9999,77777,9,999999999,0,0,0,99,0.2,0,0
2023,7,26,17,60,9,25.9,24.5,92.0,101325,0,0,0,0,0,0,0,0,0,0,0,21.4,0,0,9999,77777,9,999999999,0,0,0,99,0.2,0,0
2023,7,26,18,60,9,25.8,24.5,93.0,101325,0,0,0,0,0,0,0,0,0,0,0,21.0,0,0,9999,77777,9,999999999,0,0,0,99,0.2,0,0
2023,7,26,19,60,9,25.8,24.2,91.0,101325,0,0,0,0,0,0,0,0,0,0,0,15.9,0,0,9999,77777,9,999999999,0,0,0,99,0.2,0,0
2023,7,26,20,60,9,25.5,24.4,94.0,101325,0,0,0,0,0,0,0,0,0,0,0,16.6,0,0,9999,77777,9,999999999,0,0,0,99,0.2,0,0
2023,7,26,21,60,9,25.4,24.2,93.0,101325,0,0,0,0,0,0,0,0,0,0,0,19.7,0,0,9999,77777,9,999999999,0,0,0,99,0.2,0,0
2023,7,26,22,60,9,25.5,24.1,92.0,101325,0,0,0,0,0,0,0,0,0,0,0,17.9,0,0,9999,77777,9,999999999,0,0,0,99,0.2,0,0
2023,7,26,23,60,9,25.6,24.0,91.0,101325,0,0,0,0,0,0,0,0,0,0,0,19.6,0,0,9999,77777,9,999999999,0,0,0,99,0.2,0,0
2023,7,26,24,60,9,25.7,24.0,90.0,101325,0,0,0,0,0,0,0,0,0,0,0,20.8,0,0,9999,77777,9,999999999,0,0,0,99,0.2,0,0
2023,7,27,1,60,9,25.4,24.2,93.0,101325,0,0,0,0,0,0,0,0,0,0,0,20.2,0,0,9999,77777,9,999999999,0,0,0,99,0.2,0,0
2023,7,27,2,60,9,25.6,24.0,91.0,101325,0,0,0,0,0,0,0,0,0,0,0,21.2,0,0,9999,77777,9,999999999,0,0,0,99,0.2,0,0
2023,7,27,3,60,9,25.5,24.2,93.0,101325,0,0,0,0,0,0,0,0,0,0,0,18.0,0,0,9999,77777,9,999999999,0,0,0,99,0.2,0,0
2023,7,27,4,60,9,25.7,23.9,90.0,101325,0,0,0,0,0,0,0,0,0,0,0,19.1,0,0,9999,77777,9,999999999,0,0,0,99,0.2,0,0
2023,7,27,5,60,9,25.9,24.0,89.0,101325,0,0,0,0,0,0,0,0,0,0,0,19.5,0,0,9999,77777,9,999999999,0,0,0,99,0.2,0,0
2023,7,27,6,60,9,26.3,24.8,91.0,101325,0,0,0,0,0,0,0,0,0,0,0,21.7,0,0,9999,77777,9,999999999,0,0,0,99,0.2,0,0
2023,7,27,7,60,9,26.3,24.9,92.0,101325,0,0,0,0,0,0,0,0,0,0,0,19.2,0,0,9999,77777,9,999999999,0,0,0,99,0.2,0,0
2023,7,27,8,60,9,26.0,24.4,91.0,101325,0,0,0,0,0,0,0,0,0,0,0,22.0,0,0,9999,77777,9,999999999,0,0,0,99,0.2,0,0
2023,7,27,9,60,9,26.3,24.2,88.0,101325,0,0,0,0,0,0,0,0,0,0,0,21.3,0,0,9999,77777,9,999999999,0,0,0,99,0.2,0,0
2023,7,27,10,60,9,27.2,24.5,85.0,101325,0,0,0,0,0,0,0,0,0,0,0,20.7,0,0,9999,77777,9,999999999,0,0,0,99,0.2,0,0
2023,7,27,11,60,9,26.4,24.3,88.0,101325,0,0,0,0,0,0,0,0,0,0,0,20.6,0,0,9999,77777,9,999999999,0,0,0,99,0.2,0,0
2023,7,27,12,60,9,26.6,24.5,88.0,101325,0,0,0,0,0,0,0,0,0,0,0,20.8,0,0,9999,77777,9,999999999,0,0,0,99,0.2,0,0
2023,7,27,13,60,9,26.6,24.2,87.0,101325,0,0,0,0,0,0,0,0,0,0,0,22.0,0,0,9999,77777,9,999999999,0,0,0,99,0.2,0,0
2023,7,27,14,60,9,26.5,24.0,86.0,101325,0,0,0,0,0,0,0,0,0,0,0,19.8,0,0,9999,77777,9,999999999,0,0,0,99,0.2,0,0
2023,7,27,15,60,9,26.4,23.7,85.0,101325,0,0,0,0,0,0,0,0,0,0,0,20.9,0,0,9999,77777,9,999999999,0,0,0,99,0.2,0,0
2023,7,27,16,60,9,26.3,23.8,86.0,101325,0,0,0,0,0,0,0,0,0,0,0,20.3,0,0,9999,77777,9,999999999,0,0,0,99,0.2,0,0
2023,7,27,17,60,9,26.0,23.9,88.0,101325,0,0,0,0,0,0,0,0,0,0,0,20.0,0,0,9999,77777,9,999999999,0,0,0,99,0.2,0,0
2023,7,27,18,60,9,25.7,23.9,90.0,101325,0,0,0,0,0,0,0,0,0,0,0,21.2,0,0,9999,77777,9,999999999,0,0,0,99,0.2,0,0
2023,7,27,19,60,9,25.3,23.7,91.0,101325,0,0,0,0,0,0,0,0,0,0,0,17.8,0,0,9999,77777,9,999999999,0,0,0,99,0.2,0,0
2023,7,27,20,60,9,25.3,23.7,91.0,101325,0,0,0,0,0,0,0,0,0,0,0,18.8,0,0,9999,77777,9,999999999,0,0,0,99,0.2,0,0
2023,7,27,21,60,9,25.0,23.7,93.0,101325,0,0,0,0,0,0,0,0,0,0,0,14.4,0,0,9999,77777,9,999999999,0,0,0,99,0.2,0,0
2023,7,27,22,60,9,25.1,23.6,92.0,101325,0,0,0,0,0,0,0,0,0,0,0,15.3,0,0,9999,77777,9,999999999,0,0,0,99,0.2,0,0
2023,7,27,23,60,9,25.3,24.0,93.0,101325,0,0,0,0,0,0,0,0,0,0,0,16.1,0,0,9999,77777,9,999999999,0,0,0,99,0.2,0,0
2023,7,27,24,60,9,25.2,23.8,92.0,101325,0,0,0,0,0,0,0,0,0,0,0,18.0,0,0,9999,77777,9,999999999,0,0,0,99,0.2,0,0
2023,7,28,1,60,9,25.1,23.8,93.0,101325,0,0,0,0,0,0,0,0,0,0,0,15.8,0,0,9999,77777,9,999999999,0,0,0,99,0.2,0,0
2023,7,28,2,60,9,25.3,24.0,93.0,101325,0,0,0,0,0,0,0,0,0,0,0,16.9,0,0,9999,77777,9,999999999,0,0,0,99,0.2,0,0
2023,7,28,3,60,9,25.5,24.1,92.0,101325,0,0,0,0,0,0,0,0,0,0,0,15.8,0,0,9999,77777,9,999999999,0,0,0,99,0.2,0,0
2023,7,28,4,60,9,25.5,24.3,93.0,101325,0,0,0,0,0,0,0,0,0,0,0,17.5,0,0,9999,77777,9,999999999,0,0,0,99,0.2,0,0
2023,7,28,5,60,9,26.0,24.5,91.0,101325,0,0,0,0,0,0,0,0,0,0,0,18.2,0,0,9999,77777,9,999999999,0,0,0,99,0.2,0,0
2023,7,28,6,60,9,27.1,24.4,85.0,101325,0,0,0,0,0,0,0,0,0,0,0,21.0,0,0,9999,77777,9,999999999,0,0,0,99,0.2,0,0
2023,7,28,7,60,9,27.0,24.5,86.0,101325,0,0,0,0,0,0,0,0,0,0,0,18.7,0,0,9999,77777,9,999999999,0,0,0,99,0.2,0,0
2023,7,28,8,60,9,26.4,24.9,91.0,101325,0,0,0,0,0,0,0,0,0,0,0,21.1,0,0,9999,77777,9,999999999,0,0,0,99,0.2,0,0
2023,7,28,9,60,9,25.9,24.5,92.0,101325,0,0,0,0,0,0,0,0,0,0,0,21.7,0,0,9999,77777,9,999999999,0,0,0,99,0.2,0,0
2023,7,28,10,60,9,25.9,24.4,91.0,101325,0,0,0,0,0,0,0,0,0,0,0,20.7,0,0,9999,77777,9,999999999,0,0,0,99,0.2,0,0
2023,7,28,11,60,9,25.8,24.2,91.0,101325,0,0,0,0,0,0,0,0,0,0,0,21.7,0,0,9999,77777,9,999999999,0,0,0,99,0.2,0,0
2023,7,28,12,60,9,25.8,24.2,91.0,101325,0,0,0,0,0,0,0,0,0,0,0,19.8,0,0,9999,77777,9,999999999,0,0,0,99,0.2,0,0
2023,7,28,13,60,9,25.6,24.1,91.0,101325,0,0,0,0,0,0,0,0,0,0,0,17.3,0,0,9999,77777,9,999999999,0,0,0,99,0.2,0,0
2023,7,28,14,60,9,25.8,24.4,92.0,101325,0,0,0,0,0,0,0,0,0,0,0,15.9,0,0,9999,77777,9,999999999,0,0,0,99,0.2,0,0
2023,7,28,15,60,9,25.5,23.8,90.0,101325,0,0,0,0,0,0,0,0,0,0,0,18.0,0,0,9999,77777,9,999999999,0,0,0,99,0.2,0,0
2023,7,28,16,60,9,25.6,23.9,91.0,101325,0,0,0,0,0,0,0,0,0,0,0,14.6,0,0,9999,77777,9,999999999,0,0,0,99,0.2,0,0
2023,7,28,17,60,9,25.5,23.9,91.0,101325,0,0,0,0,0,0,0,0,0,0,0,14.5,0,0,9999,77777,9,999999999,0,0,0,99,0.2,0,0
2023,7,28,18,60,9,25.9,24.2,90.0,101325,0,0,0,0,0,0,0,0,0,0,0,15.4,0,0,9999,77777,9,999999999,0,0,0,99,0.2,0,0
2023,7,28,19,60,9,26.5,23.6,84.0,101325,0,0,0,0,0,0,0,0,0,0,0,17.6,0,0,9999,77777,9,999999999,0,0,0,99,0.2,0,0
2023,7,28,20,60,9,25.6,23.7,89.0,101325,0,0,0,0,0,0,0,0,0,0,0,16.6,0,0,9999,77777,9,999999999,0,0,0,99,0.2,0,0
2023,7,28,21,60,9,25.6,23.4,87.0,101325,0,0,0,0,0,0,0,0,0,0,0,16.1,0,0,9999,77777,9,999999999,0,0,0,99,0.2,0,0
2023,7,28,22,60,9,25.5,23.5,89.0,101325,0,0,0,0,0,0,0,0,0,0,0,16.8,0,0,9999,77777,9,999999999,0,0,0,99,0.2,0,0
2023,7,28,23,60,9,25.3,23.5,90.0,101325,0,0,0,0,0,0,0,0,0,0,0,16.7,0,0,9999,77777,9,999999999,0,0,0,99,0.2,0,0
2023,7,28,24,60,9,25.4,23.3,88.0,101325,0,0,0,0,0,0,0,0,0,0,0,15.5,0,0,9999,77777,9,999999999,0,0,0,99,0.2,0,0
2023,7,29,1,60,9,26.0,24.0,89.0,101325,0,0,0,0,0,0,0,0,0,0,0,15.5,0,0,9999,77777,9,999999999,0,0,0,99,0.2,0,0
2023,7,29,2,60,9,26.1,23.5,86.0,101325,0,0,0,0,0,0,0,0,0,0,0,19.2,0,0,9999,77777,9,999999999,0,0,0,99,0.2,0,0
2023,7,29,3,60,9,26.4,24.2,87.0,101325,0,0,0,0,0,0,0,0,0,0,0,18.9,0,0,9999,77777,9,999999999,0,0,0,99,0.2,0,0
2023,7,29,4,60,9,26.8,23.9,84.0,101325,0,0,0,0,0,0,0,0,0,0,0,20.1,0,0,9999,77777,9,999999999,0,0,0,99,0.2,0,0
2023,7,29,5,60,9,26.0,24.1,89.0,101325,0,0,0,0,0,0,0,0,0,0,0,19.8,0,0,9999,77777,9,999999999,0,0,0,99,0.2,0,0
2023,7,29,6,60,9,27.5,24.4,83.0,101325,0,0,0,0,0,0,0,0,0,0,0,19.4,0,0,9999,77777,9,999999999,0,0,0,99,0.2,0,0
2023,7,29,7,60,9,28.1,24.3,80.0,101325,0,0,0,0,0,0,0,0,0,0,0,21.2,0,0,9999,77777,9,999999999,0,0,0,99,0.2,0,0
2023,7,29,8,60,9,27.9,24.2,80.0,101325,0,0,0,0,0,0,0,0,0,0,0,23.4,0,0,9999,77777,9,999999999,0,0,0,99,0.2,0,0
2023,7,29,9,60,9,28.0,24.5,81.0,101325,0,0,0,0,0,0,0,0,0,0,0,22.5,0,0,9999,77777,9,999999999,0,0,0,99,0.2,0,0
2023,7,29,10,60,9,28.8,23.9,75.0,101325,0,0,0,0,0,0,0,0,0,0,0,23.7,0,0,9999,77777,9,999999999,0,0,0,99,0.2,0,0
2023,7,29,11,60,9,28.5,24.2,78.0,101325,0,0,0,0,0,0,0,0,0,0,0,23.9,0,0,9999,77777,9,999999999,0,0,0,99,0.2,0,0
2023,7,29,12,60,9,28.2,24.2,79.0,101325,0,0,0,0,0,0,0,0,0,0,0,23.6,0,0,9999,77777,9,999999999,0,0,0,99,0.2,0,0
2023,7,29,13,60,9,27.7,23.5,78.0,101325,0,0,0,0,0,0,0,0,0,0,0,20.7,0,0,9999,77777,9,999999999,0,0,0,99,0.2,0,0
2023,7,29,14,60,9,27.2,23.2,79.0,101325,0,0,0,0,0,0,0,0,0,0,0,19.8,0,0,9999,77777,9,999999999,0,0,0,99,0.2,0,0
2023,7,29,15,60,9,26.6,23.9,85.0,101325,0,0,0,0,0,0,0,0,0,0,0,16.6,0,0,9999,77777,9,999999999,0,0,0,99,0.2,0,0
2023,7,29,16,60,9,26.3,23.9,87.0,101325,0,0,0,0,0,0,0,0,0,0,0,17.9,0,0,9999,77777,9,999999999,0,0,0,99,0.2,0,0
2023,7,29,17,60,9,26.0,23.8,88.0,101325,0,0,0,0,0,0,0,0,0,0,0,17.4,0,0,9999,77777,9,999999999,0,0,0,99,0.2,0,0
2023,7,29,18,60,9,26.5,24.0,86.0,101325,0,0,0,0,0,0,0,0,0,0,0,17.7,0,0,9999,77777,9,999999999,0,0,0,99,0.2,0,0
2023,7,29,19,60,9,26.4,23.7,85.0,101325,0,0,0,0,0,0,0,0,0,0,0,17.4,0,0,9999,77777,9,999999999,0,0,0,99,0.2,0,0
2023,7,29,20,60,9,26.4,23.9,86.0,101325,0,0,0,0,0,0,0,0,0,0,0,17.9,0,0,9999,77777,9,999999999,0,0,0,99,0.2,0,0
2023,7,29,21,60,9,26.2,23.5,85.0,101325,0,0,0,0,0,0,0,0,0,0,0,18.1,0,0,9999,77777,9,999999999,0,0,0,99,0.2,0,0
2023,7,29,22,60,9,26.1,23.6,86.0,101325,0,0,0,0,0,0,0,0,0,0,0,18.7,0,0,9999,77777,9,999999999,0,0,0,99,0.2,0,0
2023,7,29,23,60,9,25.9,23.5,87.0,101325,0,0,0,0,0,0,0,0,0,0,0,18.2,0,0,9999,77777,9,999999999,0,0,0,99,0.2,0,0
2023,7,29,24,60,9,25.7,23.6,88.0,101325,0,0,0,0,0,0,0,0,0,0,0,16.6,0,0,9999,77777,9,999999999,0,0,0,99,0.2,0,0
2023,7,30,1,60,9,26.3,23.7,86.0,101325,0,0,0,0,0,0,0,0,0,0,0,16.3,0,0,9999,77777,9,999999999,0,0,0,99,0.2,0,0
2023,7,30,2,60,9,26.7,23.5,83.0,101325,0,0,0,0,0,0,0,0,0,0,0,17.3,0,0,9999,77777,9,999999999,0,0,0,99,0.2,0,0
2023,7,30,3,60,9,26.7,23.8,84.0,101325,0,0,0,0,0,0,0,0,0,0,0,20.0,0,0,9999,77777,9,999999999,0,0,0,99,0.2,0,0
2023,7,30,4,60,9,27.1,24.1,84.0,101325,0,0,0,0,0,0,0,0,0,0,0,19.2,0,0,9999,77777,9,999999999,0,0,0,99,0.2,0,0
2023,7,30,5,60,9,27.5,24.6,84.0,101325,0,0,0,0,0,0,0,0,0,0,0,18.5,0,0,9999,77777,9,999999999,0,0,0,99,0.2,0,0
2023,7,30,6,60,9,27.0,24.4,85.0,101325,0,0,0,0,0,0,0,0,0,0,0,19.1,0,0,9999,77777,9,999999999,0,0,0,99,0.2,0,0
2023,7,30,7,60,9,28.7,23.8,75.0,101325,0,0,0,0,0,0,0,0,0,0,0,22.9,0,0,9999,77777,9,999999999,0,0,0,99,0.2,0,0
2023,7,30,8,60,9,28.8,23.6,74.0,101325,0,0,0,0,0,0,0,0,0,0,0,25.1,0,0,9999,77777,9,999999999,0,0,0,99,0.2,0,0
2023,7,30,9,60,9,28.6,24.2,77.0,101325,0,0,0,0,0,0,0,0,0,0,0,25.6,0,0,9999,77777,9,999999999,0,0,0,99,0.2,0,0
2023,7,30,10,60,9,28.8,24.5,78.0,101325,0,0,0,0,0,0,0,0,0,0,0,24.7,0,0,9999,77777,9,999999999,0,0,0,99,0.2,0,0
2023,7,30,11,60,9,27.6,24.3,82.0,101325,0,0,0,0,0,0,0,0,0,0,0,25.3,0,0,9999,77777,9,999999999,0,0,0,99,0.2,0,0
2023,7,30,12,60,9,27.4,24.3,83.0,101325,0,0,0,0,0,0,0,0,0,0,0,22.5,0,0,9999,77777,9,999999999,0,0,0,99,0.2,0,0
2023,7,30,13,60,9,27.3,23.6,80.0,101325,0,0,0,0,0,0,0,0,0,0,0,20.8,0,0,9999,77777,9,999999999,0,0,0,99,0.2,0,0
2023,7,30,14,60,9,27.5,23.6,79.0,101325,0,0,0,0,0,0,0,0,0,0,0,18.4,0,0,9999,77777,9,999999999,0,0,0,99,0.2,0,0
2023,7,30,15,60,9,27.0,23.5,81.0,101325,0,0,0,0,0,0,0,0,0,0,0,17.3,0,0,9999,77777,9,999999999,0,0,0,99,0.2,0,0
2023,7,30,16,60,9,26.5,23.4,83.0,101325,0,0,0,0,0,0,0,0,0,0,0,18.3,0,0,9999,77777,9,999999999,0,0,0,99,0.2,0,0
2023,7,30,17,60,9,26.7,24.0,85.0,101325,0,0,0,0,0,0,0,0,0,0,0,16.4,0,0,9999,77777,9,999999999,0,0,0,99,0.2,0,0
2023,7,30,18,60,9,26.6,24.1,86.0,101325,0,0,0,0,0,0,0,0,0,0,0,17.6,0,0,9999,77777,9,999999999,0,0,0,99,0.2,0,0
2023,7,30,19,60,9,26.4,23.7,85.0,101325,0,0,0,0,0,0,0,0,0,0,0,16.6,0,0,9999,77777,9,999999999,0,0,0,99,0.2,0,0
2023,7,30,20,60,9,26.4,23.5,84.0,101325,0,0,0,0,0,0,0,0,0,0,0,17.1,0,0,9999,77777,9,999999999,0,0,0,99,0.2,0,0
2023,7,30,21,60,9,26.0,23.6,86.0,101325,0,0,0,0,0,0,0,0,0,0,0,17.2,0,0,9999,77777,9,999999999,0,0,0,99,0.2,0,0
2023,7,30,22,60,9,25.9,23.6,87.0,101325,0,0,0,0,0,0,0,0,0,0,0,16.8,0,0,9999,77777,9,999999999,0,0,0,99,0.2,0,0
2023,7,30,23,60,9,26.0,23.6,86.0,101325,0,0,0,0,0,0,0,0,0,0,0,18.1,0,0,9999,77777,9,999999999,0,0,0,99,0.2,0,0
2023,7,30,24,60,9,25.5,23.6,89.0,101325,0,0,0,0,0,0,0,0,0,0,0,17.9,0,0,9999,77777,9,999999999,0,0,0,99,0.2,0,0
2023,7,31,1,60,9,25.6,23.8,90.0,101325,0,0,0,0,0,0,0,0,0,0,0,18.2,0,0,9999,77777,9,999999999,0,0,0,99,0.2,0,0
2023,7,31,2,60,9,26.0,24.1,90.0,101325,0,0,0,0,0,0,0,0,0,0,0,17.4,0,0,9999,77777,9,999999999,0,0,0,99,0.2,0,0
2023,7,31,3,60,9,26.5,24.5,89.0,101325,0,0,0,0,0,0,0,0,0,0,0,16.8,0,0,9999,77777,9,999999999,0,0,0,99,0.2,0,0
2023,7,31,4,60,9,26.7,24.4,87.0,101325,0,0,0,0,0,0,0,0,0,0,0,19.0,0,0,9999,77777,9,999999999,0,0,0,99,0.2,0,0
2023,7,31,5,60,9,27.7,24.5,83.0,101325,0,0,0,0,0,0,0,0,0,0,0,19.3,0,0,9999,77777,9,999999999,0,0,0,99,0.2,0,0
2023,7,31,6,60,9,27.3,24.9,87.0,101325,0,0,0,0,0,0,0,0,0,0,0,17.2,0,0,9999,77777,9,999999999,0,0,0,99,0.2,0,0
2023,7,31,7,60,9,27.1,24.0,83.0,101325,0,0,0,0,0,0,0,0,0,0,0,22.4,0,0,9999,77777,9,999999999,0,0,0,99,0.2,0,0
2023,7,31,8,60,9,27.4,24.2,83.0,101325,0,0,0,0,0,0,0,0,0,0,0,20.3,0,0,9999,77777,9,999999999,0,0,0,99,0.2,0,0
2023,7,31,9,60,9,28.1,24.4,81.0,101325,0,0,0,0,0,0,0,0,0,0,0,19.5,0,0,9999,77777,9,999999999,0,0,0,99,0.2,0,0
2023,7,31,10,60,9,28.2,24.5,81.0,101325,0,0,0,0,0,0,0,0,0,0,0,24.4,0,0,9999,77777,9,999999999,0,0,0,99,0.2,0,0
2023,7,31,11,60,9,28.5,23.7,76.0,101325,0,0,0,0,0,0,0,0,0,0,0,26.6,0,0,9999,77777,9,999999999,0,0,0,99,0.2,0,0
2023,7,31,12,60,9,27.7,23.8,80.0,101325,0,0,0,0,0,0,0,0,0,0,0,25.6,0,0,9999,77777,9,999999999,0,0,0,99,0.2,0,0
2023,7,31,13,60,9,27.5,24.1,82.0,101325,0,0,0,0,0,0,0,0,0,0,0,17.9,0,0,9999,77777,9,999999999,0,0,0,99,0.2,0,0
2023,7,31,14,60,9,26.9,24.2,85.0,101325,0,0,0,0,0,0,0,0,0,0,0,16.6,0,0,9999,77777,9,999999999,0,0,0,99,0.2,0,0
2023,7,31,15,60,9,26.6,23.9,85.0,101325,0,0,0,0,0,0,0,0,0,0,0,17.8,0,0,9999,77777,9,999999999,0,0,0,99,0.2,0,0
2023,7,31,16,60,9,26.4,23.9,86.0,101325,0,0,0,0,0,0,0,0,0,0,0,17.4,0,0,9999,77777,9,999999999,0,0,0,99,0.2,0,0
2023,7,31,17,60,9,26.6,23.8,85.0,101325,0,0,0,0,0,0,0,0,0,0,0,18.1,0,0,9999,77777,9,999999999,0,0,0,99,0.2,0,0
2023,7,31,18,60,9,26.4,24.2,88.0,101325,0,0,0,0,0,0,0,0,0,0,0,16.6,0,0,9999,77777,9,999999999,0,0,0,99,0.2,0,0
2023,7,31,19,60,9,26.5,24.0,86.0,101325,0,0,0,0,0,0,0,0,0,0,0,17.6,0,0,9999,77777,9,999999999,0,0,0,99,0.2,0,0
2023,7,31,20,60,9,25.7,23.8,89.0,101325,0,0,0,0,0,0,0,0,0,0,0,18.7,0,0,9999,77777,9,999999999,0,0,0,99,0.2,0,0
2023,7,31,21,60,9,26.3,24.3,89.0,101325,0,0,0,0,0,0,0,0,0,0,0,17.1,0,0,9999,77777,9,999999999,0,0,0,99,0.2,0,0
2023,7,31,22,60,9,25.9,23.9,89.0,101325,0,0,0,0,0,0,0,0,0,0,0,19.7,0,0,9999,77777,9,999999999,0,0,0,99,0.2,0,0
2023,7,31,23,60,9,25.3,23.8,91.0,101325,0,0,0,0,0,0,0,0,0,0,0,19.5,0,0,9999,77777,9,999999999,0,0,0,99,0.2,0,0
2023,7,31,24,60,9,25.5,24.1,92.0,101325,0,0,0,0,0,0,0,0,0,0,0,18.3,0,0,9999,77777,9,999999999,0,0,0,99,0.2,0,0
2023,8,1,1,60,9,26.2,24.2,89.0,101325,0,0,0,0,0,0,0,0,0,0,0,19.0,0,0,9999,77777,9,999999999,0,0,0,99,0.2,0,0
2023,8,1,2,60,9,26.0,24.3,90.0,101325,0,0,0,0,0,0,0,0,0,0,0,20.7,0,0,9999,77777,9,999999999,0,0,0,99,0.2,0,0
2023,8,1,3,60,9,26.4,24.5,89.0,101325,0,0,0,0,0,0,0,0,0,0,0,18.4,0,0,9999,77777,9,999999999,0,0,0,99,0.2,0,0
2023,8,1,4,60,9,26.8,24.3,86.0,101325,0,0,0,0,0,0,0,0,0,0,0,20.3,0,0,9999,77777,9,999999999,0,0,0,99,0.2,0,0
2023,8,1,5,60,9,27.7,24.1,81.0,101325,0,0,0,0,0,0,0,0,0,0,0,21.0,0,0,9999,77777,9,999999999,0,0,0,99,0.2,0,0
2023,8,1,6,60,9,28.1,24.4,80.0,101325,0,0,0,0,0,0,0,0,0,0,0,20.8,0,0,9999,77777,9,999999999,0,0,0,99,0.2,0,0
2023,8,1,7,60,9,28.1,24.3,80.0,101325,0,0,0,0,0,0,0,0,0,0,0,22.1,0,0,9999,77777,9,999999999,0,0,0,99,0.2,0,0
2023,8,1,8,60,9,28.8,24.7,79.0,101325,0,0,0,0,0,0,0,0,0,0,0,22.0,0,0,9999,77777,9,999999999,0,0,0,99,0.2,0,0
2023,8,1,9,60,9,28.9,24.4,77.0,101325,0,0,0,0,0,0,0,0,0,0,0,25.0,0,0,9999,77777,9,999999999,0,0,0,99,0.2,0,0
2023,8,1,10,60,9,28.1,23.8,78.0,101325,0,0,0,0,0,0,0,0,0,0,0,25.2,0,0,9999,77777,9,999999999,0,0,0,99,0.2,0,0
2023,8,1,11,60,9,28.3,24.2,78.0,101325,0,0,0,0,0,0,0,0,0,0,0,25.3,0,0,9999,77777,9,999999999,0,0,0,99,0.2,0,0
2023,8,1,12,60,9,28.3,23.4,75.0,101325,0,0,0,0,0,0,0,0,0,0,0,23.2,0,0,9999,77777,9,999999999,0,0,0,99,0.2,0,0
2023,8,1,13,60,9,27.5,23.3,78.0,101325,0,0,0,0,0,0,0,0,0,0,0,18.9,0,0,9999,77777,9,999999999,0,0,0,99,0.2,0,0
2023,8,1,14,60,9,27.2,24.1,83.0,101325,0,0,0,0,0,0,0,0,0,0,0,17.4,0,0,9999,77777,9,999999999,0,0,0,99,0.2,0,0
2023,8,1,15,60,9,26.7,24.0,85.0,101325,0,0,0,0,0,0,0,0,0,0,0,17.7,0,0,9999,77777,9,999999999,0,0,0,99,0.2,0,0
2023,8,1,16,60,9,26.5,23.8,85.0,101325,0,0,0,0,0,0,0,0,0,0,0,19.3,0,0,9999,77777,9,999999999,0,0,0,99,0.2,0,0
2023,8,1,17,60,9,26.6,23.8,85.0,101325,0,0,0,0,0,0,0,0,0,0,0,20.9,0,0,9999,77777,9,999999999,0,0,0,99,0.2,0,0
2023,8,1,18,60,9,26.7,23.7,84.0,101325,0,0,0,0,0,0,0,0,0,0,0,20.8,0,0,9999,77777,9,999999999,0,0,0,99,0.2,0,0
2023,8,1,19,60,9,26.4,23.5,84.0,101325,0,0,0,0,0,0,0,0,0,0,0,20.2,0,0,9999,77777,9,999999999,0,0,0,99,0.2,0,0
2023,8,1,20,60,9,26.0,23.6,87.0,101325,0,0,0,0,0,0,0,0,0,0,0,20.0,0,0,9999,77777,9,999999999,0,0,0,99,0.2,0,0
2023,8,1,21,60,9,26.1,23.7,86.0,101325,0,0,0,0,0,0,0,0,0,0,0,20.9,0,0,9999,77777,9,999999999,0,0,0,99,0.2,0,0
2023,8,1,22,60,9,26.3,23.5,85.0,101325,0,0,0,0,0,0,0,0,0,0,0,21.1,0,0,9999,77777,9,999999999,0,0,0,99,0.2,0,0
2023,8,1,23,60,9,26.0,23.4,86.0,101325,0,0,0,0,0,0,0,0,0,0,0,22.5,0,0,9999,77777,9,999999999,0,0,0,99,0.2,0,0
2023,8,1,24,60,9,25.8,23.3,86.0,101325,0,0,0,0,0,0,0,0,0,0,0,20.8,0,0,9999,77777,9,999999999,0,0,0,99,0.2,0,0
2023,8,2,1,60,9,26.6,23.5,83.0,101325,0,0,0,0,0,0,0,0,0,0,0,19.7,0,0,9999,77777,9,999999999,0,0,0,99,0.2,0,0
2023,8,2,2,60,9,26.5,23.3,82.0,101325,0,0,0,0,0,0,0,0,0,0,0,19.5,0,0,9999,77777,9,999999999,0,0,0,99,0.2,0,0
2023,8,2,3,60,9,26.2,23.9,87.0,101325,0,0,0,0,0,0,0,0,0,0,0,17.9,0,0,9999,77777,9,999999999,0,0,0,99,0.2,0,0
2023,8,2,4,60,9,26.9,24.2,85.0,101325,0,0,0,0,0,0,0,0,0,0,0,21.4,0,0,9999,77777,9,999999999,0,0,0,99,0.2,0,0
2023,8,2,5,60,9,28.1,24.3,80.0,101325,0,0,0,0,0,0,0,0,0,0,0,23.7,0,0,9999,77777,9,999999999,0,0,0,99,0.2,0,0
2023,8,2,6,60,9,27.9,24.1,80.0,101325,0,0,0,0,0,0,0,0,0,0,0,24.7,0,0,9999,77777,9,999999999,0,0,0,99,0.2,0,0
2023,8,2,7,60,9,28.3,23.6,75.0,101325,0,0,0,0,0,0,0,0,0,0,0,24.1,0,0,9999,77777,9,999999999,0,0,0,99,0.2,0,0
2023,8,2,8,60,9,28.0,23.5,77.0,101325,0,0,0,0,0,0,0,0,0,0,0,24.2,0,0,9999,77777,9,999999999,0,0,0,99,0.2,0,0
2023,8,2,9,60,9,28.3,23.8,76.0,101325,0,0,0,0,0,0,0,0,0,0,0,24.1,0,0,9999,77777,9,999999999,0,0,0,99,0.2,0,0
2023,8,2,10,60,9,28.6,24.3,77.0,101325,0,0,0,0,0,0,0,0,0,0,0,25.6,0,0,9999,77777,9,999999999,0,0,0,99,0.2,0,0
2023,8,2,11,60,9,28.6,23.8,75.0,101325,0,0,0,0,0,0,0,0,0,0,0,27.7,0,0,9999,77777,9,999999999,0,0,0,99,0.2,0,0
2023,8,2,12,60,9,28.5,24.0,77.0,101325,0,0,0,0,0,0,0,0,0,0,0,25.6,0,0,9999,77777,9,999999999,0,0,0,99,0.2,0,0
2023,8,2,13,60,9,24.5,22.8,90.0,101325,0,0,0,0,0,0,0,0,0,0,0,15.5,0,0,9999,77777,9,999999999,0,0,0,99,0.2,0,0
2023,8,2,14,60,9,26.0,24.6,92.0,101325,0,0,0,0,0,0,0,0,0,0,0,10.2,0,0,9999,77777,9,999999999,0,0,0,99,0.2,0,0
2023,8,2,15,60,9,25.3,23.8,91.0,101325,0,0,0,0,0,0,0,0,0,0,0,17.0,0,0,9999,77777,9,999999999,0,0,0,99,0.2,0,0
2023,8,2,16,60,9,26.1,24.2,90.0,101325,0,0,0,0,0,0,0,0,0,0,0,17.7,0,0,9999,77777,9,999999999,0,0,0,99,0.2,0,0
2023,8,2,17,60,9,26.2,24.1,88.0,101325,0,0,0,0,0,0,0,0,0,0,0,17.9,0,0,9999,77777,9,999999999,0,0,0,99,0.2,0,0
2023,8,2,18,60,9,25.7,23.9,90.0,101325,0,0,0,0,0,0,0,0,0,0,0,18.9,0,0,9999,77777,9,999999999,0,0,0,99,0.2,0,0
2023,8,2,19,60,9,26.3,23.8,86.0,101325,0,0,0,0,0,0,0,0,0,0,0,18.9,0,0,9999,77777,9,999999999,0,0,0,99,0.2,0,0
2023,8,2,20,60,9,26.5,24.2,87.0,101325,0,0,0,0,0,0,0,0,0,0,0,19.7,0,0,9999,77777,9,999999999,0,0,0,99,0.2,0,0
2023,8,2,21,60,9,26.2,24.6,91.0,101325,0,0,0,0,0,0,0,0,0,0,0,21.0,0,0,9999,77777,9,999999999,0,0,0,99,0.2,0,0
2023,8,2,22,60,9,26.1,24.1,89.0,101325,0,0,0,0,0,0,0,0,0,0,0,22.6,0,0,9999,77777,9,999999999,0,0,0,99,0.2,0,0
2023,8,2,23,60,9,25.9,23.5,86.0,101325,0,0,0,0,0,0,0,0,0,0,0,24.2,0,0,9999,77777,9,999999999,0,0,0,99,0.2,0,0
2023,8,2,24,60,9,26.3,24.1,87.0,101325,0,0,0,0,0,0,0,0,0,0,0,23.1,0,0,9999,77777,9,999999999,0,0,0,99,0.2,0,0
2023,8,3,1,60,9,26.6,24.1,86.0,101325,0,0,0,0,0,0,0,0,0,0,0,21.9,0,0,9999,77777,9,999999999,0,0,0,99,0.2,0,0
2023,8,3,2,60,9,26.8,23.4,82.0,101325,0,0,0,0,0,0,0,0,0,0,0,21.7,0,0,9999,77777,9,999999999,0,0,0,99,0.2,0,0
2023,8,3,3,60,9,27.0,23.5,81.0,101325,0,0,0,0,0,0,0,0,0,0,0,22.9,0,0,9999,77777,9,999999999,0,0,0,99,0.2,0,0
2023,8,3,4,60,9,27.5,23.3,78.0,101325,0,0,0,0,0,0,0,0,0,0,0,23.2,0,0,9999,77777,9,999999999,0,0,0,99,0.2,0,0
2023,8,3,5,60,9,27.4,23.7,80.0,101325,0,0,0,0,0,0,0,0,0,0,0,24.2,0,0,9999,77777,9,999999999,0,0,0,99,0.2,0,0
2023,8,3,6,60,9,27.9,24.0,79.0,101325,0,0,0,0,0,0,0,0,0,0,0,24.7,0,0,9999,77777,9,999999999,0,0,0,99,0.2,0,0
2023,8,3,7,60,9,28.4,24.3,78.0,101325,0,0,0,0,0,0,0,0,0,0,0,23.8,0,0,9999,77777,9,999999999,0,0,0,99,0.2,0,0
2023,8,3,8,60,9,28.1,24.7,82.0,101325,0,0,0,0,0,0,0,0,0,0,0,24.6,0,0,9999,77777,9,999999999,0,0,0,99,0.2,0,0
2023,8,3,9,60,9,28.8,24.3,77.0,101325,0,0,0,0,0,0,0,0,0,0,0,27.2,0,0,9999,77777,9,999999999,0,0,0,99,0.2,0,0
2023,8,3,10,60,9,28.0,24.4,81.0,101325,0,0,0,0,0,0,0,0,0,0,0,26.6,0,0,9999,77777,9,999999999,0,0,0,99,0.2,0,0
2023,8,3,11,60,9,28.1,24.4,80.0,101325,0,0,0,0,0,0,0,0,0,0,0,25.3,0,0,9999,77777,9,999999999,0,0,0,99,0.2,0,0
2023,8,3,12,60,9,28.4,24.3,78.0,101325,0,0,0,0,0,0,0,0,0,0,0,25.2,0,0,9999,77777,9,999999999,0,0,0,99,0.2,0,0
2023,8,3,13,60,9,27.5,24.2,82.0,101325,0,0,0,0,0,0,0,0,0,0,0,20.9,0,0,9999,77777,9,999999999,0,0,0,99,0.2,0,0
2023,8,3,14,60,9,26.8,23.9,84.0,101325,0,0,0,0,0,0,0,0,0,0,0,19.6,0,0,9999,77777,9,999999999,0,0,0,99,0.2,0,0
2023,8,3,15,60,9,26.3,23.8,86.0,101325,0,0,0,0,0,0,0,0,0,0,0,19.7,0,0,9999,77777,9,999999999,0,0,0,99,0.2,0,0
2023,8,3,16,60,9,26.6,24.3,87.0,101325,0,0,0,0,0,0,0,0,0,0,0,18.5,0,0,9999,77777,9,999999999,0,0,0,99,0.2,0,0
2023,8,3,17,60,9,26.1,23.9,88.0,101325,0,0,0,0,0,0,0,0,0,0,0,19.1,0,0,9999,77777,9,999999999,0,0,0,99,0.2,0,0
2023,8,3,18,60,9,26.6,24.5,88.0,101325,0,0,0,0,0,0,0,0,0,0,0,18.9,0,0,9999,77777,9,999999999,0,0,0,99,0.2,0,0
2023,8,3,19,60,9,26.5,24.1,87.0,101325,0,0,0,0,0,0,0,0,0,0,0,20.4,0,0,9999,77777,9,999999999,0,0,0,99,0.2,0,0
2023,8,3,20,60,9,26.8,24.5,87.0,101325,0,0,0,0,0,0,0,0,0,0,0,20.2,0,0,9999,77777,9,999999999,0,0,0,99,0.2,0,0
2023,8,3,21,60,9,26.8,24.0,84.0,101325,0,0,0,0,0,0,0,0,0,0,0,22.7,0,0,9999,77777,9,999999999,0,0,0,99,0.2,0,0
2023,8,3,22,60,9,26.7,24.1,86.0,101325,0,0,0,0,0,0,0,0,0,0,0,22.4,0,0,9999,77777,9,999999999,0,0,0,99,0.2,0,0
2023,8,3,23,60,9,26.8,24.0,85.0,101325,0,0,0,0,0,0,0,0,0,0,0,21.9,0,0,9999,77777,9,999999999,0,0,0,99,0.2,0,0
2023,8,3,24,60,9,26.9,24.0,84.0,101325,0,0,0,0,0,0,0,0,0,0,0,21.5,0,0,9999,77777,9,999999999,0,0,0,99,0.2,0,0
2023,8,4,1,60,9,26.6,24.2,87.0,101325,0,0,0,0,0,0,0,0,0,0,0,20.5,0,0,9999,77777,9,999999999,0,0,0,99,0.2,0,0
2023,8,4,2,60,9,26.5,24.3,88.0,101325,0,0,0,0,0,0,0,0,0,0,0,18.7,0,0,9999,77777,9,999999999,0,0,0,99,0.2,0,0
2023,8,4,3,60,9,27.0,24.5,86.0,101325,0,0,0,0,0,0,0,0,0,0,0,20.3,0,0,9999,77777,9,999999999,0,0,0,99,0.2,0,0
2023,8,4,4,60,9,26.9,24.3,86.0,101325,0,0,0,0,0,0,0,0,0,0,0,20.9,0,0,9999,77777,9,999999999,0,0,0,99,0.2,0,0
2023,8,4,5,60,9,27.7,24.6,83.0,101325,0,0,0,0,0,0,0,0,0,0,0,20.9,0,0,9999,77777,9,999999999,0,0,0,99,0.2,0,0
2023,8,4,6,60,9,27.9,24.8,83.0,101325,0,0,0,0,0,0,0,0,0,0,0,19.5,0,0,9999,77777,9,999999999,0,0,0,99,0.2,0,0
2023,8,4,7,60,9,28.1,24.9,83.0,101325,0,0,0,0,0,0,0,0,0,0,0,21.1,0,0,9999,77777,9,999999999,0,0,0,99,0.2,0,0
2023,8,4,8,60,9,28.1,25.1,84.0,101325,0,0,0,0,0,0,0,0,0,0,0,25.3,0,0,9999,77777,9,999999999,0,0,0,99,0.2,0,0
2023,8,4,9,60,9,28.4,25.4,84.0,101325,0,0,0,0,0,0,0,0,0,0,0,24.7,0,0,9999,77777,9,999999999,0,0,0,99,0.2,0,0
2023,8,4,10,60,9,27.9,25.0,84.0,101325,0,0,0,0,0,0,0,0,0,0,0,24.5,0,0,9999,77777,9,999999999,0,0,0,99,0.2,0,0
2023,8,4,11,60,9,27.7,24.9,85.0,101325,0,0,0,0,0,0,0,0,0,0,0,23.3,0,0,9999,77777,9,999999999,0,0,0,99,0.2,0,0
2023,8,4,12,60,9,28.0,24.9,83.0,101325,0,0,0,0,0,0,0,0,0,0,0,23.7,0,0,9999,77777,9,999999999,0,0,0,99,0.2,0,0
2023,8,4,13,60,9,26.9,24.3,86.0,101325,0,0,0,0,0,0,0,0,0,0,0,20.9,0,0,9999,77777,9,999999999,0,0,0,99,0.2,0,0
2023,8,4,14,60,9,27.2,24.8,87.0,101325,0,0,0,0,0,0,0,0,0,0,0,19.2,0,0,9999,77777,9,999999999,0,0,0,99,0.2,0,0
2023,8,4,15,60,9,26.9,24.3,86.0,101325,0,0,0,0,0,0,0,0,0,0,0,19.5,0,0,9999,77777,9,999999999,0,0,0,99,0.2,0,0
2023,8,4,16,60,9,26.6,24.3,87.0,101325,0,0,0,0,0,0,0,0,0,0,0,18.8,0,0,9999,77777,9,999999999,0,0,0,99,0.2,0,0
2023,8,4,17,60,9,26.6,24.3,87.0,101325,0,0,0,0,0,0,0,0,0,0,0,19.7,0,0,9999,77777,9,999999999,0,0,0,99,0.2,0,0
2023,8,4,18,60,9,26.7,24.5,88.0,101325,0,0,0,0,0,0,0,0,0,0,0,21.3,0,0,9999,77777,9,999999999,0,0,0,99,0.2,0,0
2023,8,4,19,60,9,26.6,24.4,88.0,101325,0,0,0,0,0,0,0,0,0,0,0,21.4,0,0,9999,77777,9,999999999,0,0,0,99,0.2,0,0
2023,8,4,20,60,9,26.9,24.1,85.0,101325,0,0,0,0,0,0,0,0,0,0,0,22.6,0,0,9999,77777,9,999999999,0,0,0,99,0.2,0,0
2023,8,4,21,60,9,26.8,24.0,84.0,101325,0,0,0,0,0,0,0,0,0,0,0,22.1,0,0,9999,77777,9,999999999,0,0,0,99,0.2,0,0
2023,8,4,22,60,9,26.4,23.6,85.0,101325,0,0,0,0,0,0,0,0,0,0,0,21.1,0,0,9999,77777,9,999999999,0,0,0,99,0.2,0,0
2023,8,4,23,60,9,26.8,23.8,84.0,101325,0,0,0,0,0,0,0,0,0,0,0,19.5,0,0,9999,77777,9,999999999,0,0,0,99,0.2,0,0
2023,8,4,24,60,9,26.1,23.3,85.0,101325,0,0,0,0,0,0,0,0,0,0,0,20.8,0,0,9999,77777,9,999999999,0,0,0,99,0.2,0,0
2023,8,5,1,60,9,26.4,23.9,86.0,101325,0,0,0,0,0,0,0,0,0,0,0,17.1,0,0,9999,77777,9,999999999,0,0,0,99,0.2,0,0
2023,8,5,2,60,9,25.7,23.9,90.0,101325,0,0,0,0,0,0,0,0,0,0,0,14.1,0,0,9999,77777,9,999999999,0,0,0,99,0.2,0,0
2023,8,5,3,60,9,26.0,24.3,90.0,101325,0,0,0,0,0,0,0,0,0,0,0,18.5,0,0,9999,77777,9,999999999,0,0,0,99,0.2,0,0
2023,8,5,4,60,9,26.9,24.6,87.0,101325,0,0,0,0,0,0,0,0,0,0,0,20.9,0,0,9999,77777,9,999999999,0,0,0,99,0.2,0,0
2023,8,5,5,60,9,27.6,24.1,81.0,101325,0,0,0,0,0,0,0,0,0,0,0,20.1,0,0,9999,77777,9,999999999,0,0,0,99,0.2,0,0
2023,8,5,6,60,9,28.1,24.7,82.0,101325,0,0,0,0,0,0,0,0,0,0,0,20.2,0,0,9999,77777,9,999999999,0,0,0,99,0.2,0,0
2023,8,5,7,60,9,28.0,24.9,83.0,101325,0,0,0,0,0,0,0,0,0,0,0,20.0,0,0,9999,77777,9,999999999,0,0,0,99,0.2,0,0
2023,8,5,8,60,9,28.7,25.0,80.0,101325,0,0,0,0,0,0,0,0,0,0,0,22.7,0,0,9999,77777,9,999999999,0,0,0,99,0.2,0,0
2023,8,5,9,60,9,29.3,24.7,76.0,101325,0,0,0,0,0,0,0,0,0,0,0,22.9,0,0,9999,77777,9,999999999,0,0,0,99,0.2,0,0
2023,8,5,10,60,9,28.3,24.6,81.0,101325,0,0,0,0,0,0,0,0,0,0,0,23.7,0,0,9999,77777,9,999999999,0,0,0,99,0.2,0,0
2023,8,5,11,60,9,28.6,24.6,79.0,101325,0,0,0,0,0,0,0,0,0,0,0,22.8,0,0,9999,77777,9,999999999,0,0,0,99,0.2,0,0
2023,8,5,12,60,9,28.4,24.5,80.0,101325,0,0,0,0,0,0,0,0,0,0,0,23.1,0,0,9999,77777,9,999999999,0,0,0,99,0.2,0,0
2023,8,5,13,60,9,27.8,24.5,82.0,101325,0,0,0,0,0,0,0,0,0,0,0,18.2,0,0,9999,77777,9,999999999,0,0,0,99,0.2,0,0
2023,8,5,14,60,9,27.6,24.2,82.0,101325,0,0,0,0,0,0,0,0,0,0,0,19.0,0,0,9999,77777,9,999999999,0,0,0,99,0.2,0,0
2023,8,5,15,60,9,27.4,24.2,83.0,101325,0,0,0,0,0,0,0,0,0,0,0,19.7,0,0,9999,77777,9,999999999,0,0,0,99,0.2,0,0
2023,8,5,16,60,9,27.2,24.3,84.0,101325,0,0,0,0,0,0,0,0,0,0,0,20.3,0,0,9999,77777,9,999999999,0,0,0,99,0.2,0,0
2023,8,5,17,60,9,27.1,24.3,84.0,101325,0,0,0,0,0,0,0,0,0,0,0,20.6,0,0,9999,77777,9,999999999,0,0,0,99,0.2,0,0
2023,8,5,18,60,9,27.1,24.2,84.0,101325,0,0,0,0,0,0,0,0,0,0,0,21.8,0,0,9999,77777,9,999999999,0,0,0,99,0.2,0,0
2023,8,5,19,60,9,26.9,24.1,85.0,101325,0,0,0,0,0,0,0,0,0,0,0,21.4,0,0,9999,77777,9,999999999,0,0,0,99,0.2,0,0
2023,8,5,20,60,9,26.6,24.3,87.0,101325,0,0,0,0,0,0,0,0,0,0,0,22.8,0,0,9999,77777,9,999999999,0,0,0,99,0.2,0,0
2023,8,5,21,60,9,26.3,24.4,89.0,101325,0,0,0,0,0,0,0,0,0,0,0,21.8,0,0,9999,77777,9,999999999,0,0,0,99,0.2,0,0
2023,8,5,22,60,9,26.3,24.0,87.0,101325,0,0,0,0,0,0,0,0,0,0,0,23.2,0,0,9999,77777,9,999999999,0,0,0,99,0.2,0,0
2023,8,5,23,60,9,26.2,24.0,88.0,101325,0,0,0,0,0,0,0,0,0,0,0,20.6,0,0,9999,77777,9,999999999,0,0,0,99,0.2,0,0
2023,8,5,24,60,9,26.7,23.9,85.0,101325,0,0,0,0,0,0,0,0,0,0,0,19.6,0,0,9999,77777,9,999999999,0,0,0,99,0.2,0,0
2023,8,6,1,60,9,26.9,24.1,85.0,101325,0,0,0,0,0,0,0,0,0,0,0,19.7,0,0,9999,77777,9,999999999,0,0,0,99,0.2,0,0
2023,8,6,2,60,9,27.1,24.2,84.0,101325,0,0,0,0,0,0,0,0,0,0,0,17.3,0,0,9999,77777,9,999999999,0,0,0,99,0.2,0,0
2023,8,6,3,60,9,26.9,24.1,85.0,101325,0,0,0,0,0,0,0,0,0,0,0,21.3,0,0,9999,77777,9,999999999,0,0,0,99,0.2,0,0
2023,8,6,4,60,9,27.4,24.4,83.0,101325,0,0,0,0,0,0,0,0,0,0,0,18.1,0,0,9999,77777,9,999999999,0,0,0,99,0.2,0,0
2023,8,6,5,60,9,26.9,23.5,82.0,101325,0,0,0,0,0,0,0,0,0,0,0,22.0,0,0,9999,77777,9,999999999,0,0,0,99,0.2,0,0
2023,8,6,6,60,9,27.9,24.4,81.0,101325,0,0,0,0,0,0,0,0,0,0,0,20.3,0,0,9999,77777,9,999999999,0,0,0,99,0.2,0,0
2023,8,6,7,60,9,28.4,24.4,79.0,101325,0,0,0,0,0,0,0,0,0,0,0,23.3,0,0,9999,77777,9,999999999,0,0,0,99,0.2,0,0
2023,8,6,8,60,9,28.7,24.5,78.0,101325,0,0,0,0,0,0,0,0,0,0,0,23.0,0,0,9999,77777,9,999999999,0,0,0,99,0.2,0,0
2023,8,6,9,60,9,28.5,24.9,81.0,101325,0,0,0,0,0,0,0,0,0,0,0,21.7,0,0,9999,77777,9,999999999,0,0,0,99,0.2,0,0
2023,8,6,10,60,9,28.8,24.9,80.0,101325,0,0,0,0,0,0,0,0,0,0,0,22.9,0,0,9999,77777,9,999999999,0,0,0,99,0.2,0,0
2023,8,6,11,60,9,28.7,24.8,79.0,101325,0,0,0,0,0,0,0,0,0,0,0,23.4,0,0,9999,77777,9,999999999,0,0,0,99,0.2,0,0
2023,8,6,12,60,9,28.5,24.5,79.0,101325,0,0,0,0,0,0,0,0,0,0,0,22.8,0,0,9999,77777,9,999999999,0,0,0,99,0.2,0,0
2023,8,6,13,60,9,27.4,24.1,82.0,101325,0,0,0,0,0,0,0,0,0,0,0,20.1,0,0,9999,77777,9,999999999,0,0,0,99,0.2,0,0
2023,8,6,14,60,9,26.9,23.7,83.0,101325,0,0,0,0,0,0,0,0,0,0,0,18.9,0,0,9999,77777,9,999999999,0,0,0,99,0.2,0,0
2023,8,6,15,60,9,26.6,23.6,84.0,101325,0,0,0,0,0,0,0,0,0,0,0,17.7,0,0,9999,77777,9,999999999,0,0,0,99,0.2,0,0
2023,8,6,16,60,9,26.8,23.7,83.0,101325,0,0,0,0,0,0,0,0,0,0,0,18.4,0,0,9999,77777,9,999999999,0,0,0,99,0.2,0,0
2023,8,6,17,60,9,26.7,23.8,84.0,101325,0,0,0,0,0,0,0,0,0,0,0,19.5,0,0,9999,77777,9,999999999,0,0,0,99,0.2,0,0
2023,8,6,18,60,9,26.8,23.9,84.0,101325,0,0,0,0,0,0,0,0,0,0,0,18.8,0,0,9999,77777,9,999999999,0,0,0,99,0.2,0,0
2023,8,6,19,60,9,26.7,24.0,85.0,101325,0,0,0,0,0,0,0,0,0,0,0,19.3,0,0,9999,77777,9,999999999,0,0,0,99,0.2,0,0
2023,8,6,20,60,9,26.6,24.1,86.0,101325,0,0,0,0,0,0,0,0,0,0,0,19.6,0,0,9999,77777,9,999999999,0,0,0,99,0.2,0,0
2023,8,6,21,60,9,26.1,24.3,90.0,101325,0,0,0,0,0,0,0,0,0,0,0,20.6,0,0,9999,77777,9,999999999,0,0,0,99,0.2,0,0
2023,8,6,22,60,9,25.9,24.2,90.0,101325,0,0,0,0,0,0,0,0,0,0,0,21.3,0,0,9999,77777,9,999999999,0,0,0,99,0.2,0,0
2023,8,6,23,60,9,26.2,24.0,88.0,101325,0,0,0,0,0,0,0,0,0,0,0,20.7,0,0,9999,77777,9,999999999,0,0,0,99,0.2,0,0
2023,8,6,24,60,9,26.5,23.9,85.0,101325,0,0,0,0,0,0,0,0,0,0,0,22.8,0,0,9999,77777,9,999999999,0,0,0,99,0.2,0,0
2023,8,7,1,60,9,26.5,23.2,82.0,101325,0,0,0,0,0,0,0,0,0,0,0,21.6,0,0,9999,77777,9,999999999,0,0,0,99,0.2,0,0
2023,8,7,2,60,9,26.9,23.8,83.0,101325,0,0,0,0,0,0,0,0,0,0,0,20.3,0,0,9999,77777,9,999999999,0,0,0,99,0.2,0,0
2023,8,7,3,60,9,26.8,23.9,84.0,101325,0,0,0,0,0,0,0,0,0,0,0,21.3,0,0,9999,77777,9,999999999,0,0,0,99,0.2,0,0
2023,8,7,4,60,9,27.4,23.9,81.0,101325,0,0,0,0,0,0,0,0,0,0,0,22.2,0,0,9999,77777,9,999999999,0,0,0,99,0.2,0,0
2023,8,7,5,60,9,28.0,24.0,79.0,101325,0,0,0,0,0,0,0,0,0,0,0,23.2,0,0,9999,77777,9,999999999,0,0,0,99,0.2,0,0
2023,8,7,6,60,9,28.5,24.1,77.0,101325,0,0,0,0,0,0,0,0,0,0,0,23.7,0,0,9999,77777,9,999999999,0,0,0,99,0.2,0,0
2023,8,7,7,60,9,28.7,24.2,77.0,101325,0,0,0,0,0,0,0,0,0,0,0,25.7,0,0,9999,77777,9,999999999,0,0,0,99,0.2,0,0
2023,8,7,8,60,9,28.7,24.5,78.0,101325,0,0,0,0,0,0,0,0,0,0,0,26.9,0,0,9999,77777,9,999999999,0,0,0,99,0.2,0,0
2023,8,7,9,60,9,28.8,24.4,77.0,101325,0,0,0,0,0,0,0,0,0,0,0,24.6,0,0,9999,77777,9,999999999,0,0,0,99,0.2,0,0
2023,8,7,10,60,9,29.0,24.2,75.0,101325,0,0,0,0,0,0,0,0,0,0,0,25.7,0,0,9999,77777,9,999999999,0,0,0,99,0.2,0,0
2023,8,7,11,60,9,28.3,24.3,79.0,101325,0,0,0,0,0,0,0,0,0,0,0,26.0,0,0,9999,77777,9,999999999,0,0,0,99,0.2,0,0
2023,8,7,12,60,9,28.0,24.1,79.0,101325,0,0,0,0,0,0,0,0,0,0,0,24.7,0,0,9999,77777,9,999999999,0,0,0,99,0.2,0,0
2023,8,7,13,60,9,27.8,24.1,80.0,101325,0,0,0,0,0,0,0,0,0,0,0,20.6,0,0,9999,77777,9,999999999,0,0,0,99,0.2,0,0
2023,8,7,14,60,9,27.4,24.1,82.0,101325,0,0,0,0,0,0,0,0,0,0,0,18.1,0,0,9999,77777,9,999999999,0,0,0,99,0.2,0,0
2023,8,7,15,60,9,26.9,24.2,85.0,101325,0,0,0,0,0,0,0,0,0,0,0,17.1,0,0,9999,77777,9,999999999,0,0,0,99,0.2,0,0
2023,8,7,16,60,9,26.9,24.1,84.0,101325,0,0,0,0,0,0,0,0,0,0,0,16.6,0,0,9999,77777,9,999999999,0,0,0,99,0.2,0,0
2023,8,7,17,60,9,26.9,24.0,84.0,101325,0,0,0,0,0,0,0,0,0,0,0,18.0,0,0,9999,77777,9,999999999,0,0,0,99,0.2,0,0
2023,8,7,18,60,9,26.5,24.3,88.0,101325,0,0,0,0,0,0,0,0,0,0,0,18.5,0,0,9999,77777,9,999999999,0,0,0,99,0.2,0,0
2023,8,7,19,60,9,26.1,24.3,90.0,101325,0,0,0,0,0,0,0,0,0,0,0,17.3,0,0,9999,77777,9,999999999,0,0,0,99,0.2,0,0
2023,8,7,20,60,9,26.2,24.2,89.0,101325,0,0,0,0,0,0,0,0,0,0,0,17.9,0,0,9999,77777,9,999999999,0,0,0,99,0.2,0,0
2023,8,7,21,60,9,26.3,24.1,87.0,101325,0,0,0,0,0,0,0,0,0,0,0,19.8,0,0,9999,77777,9,999999999,0,0,0,99,0.2,0,0
2023,8,7,22,60,9,26.0,24.1,89.0,101325,0,0,0,0,0,0,0,0,0,0,0,19.3,0,0,9999,77777,9,999999999,0,0,0,99,0.2,0,0
2023,8,7,23,60,9,26.3,24.0,87.0,101325,0,0,0,0,0,0,0,0,0,0,0,19.0,0,0,9999,77777,9,999999999,0,0,0,99,0.2,0,0
2023,8,7,24,60,9,26.3,24.0,87.0,101325,0,0,0,0,0,0,0,0,0,0,0,19.5,0,0,9999,77777,9,999999999,0,0,0,99,0.2,0,0
2023,8,8,1,60,9,26.2,23.6,85.0,101325,0,0,0,0,0,0,0,0,0,0,0,20.4,0,0,9999,77777,9,999999999,0,0,0,99,0.2,0,0
2023,8,8,2,60,9,26.6,24.6,89.0,101325,0,0,0,0,0,0,0,0,0,0,0,17.2,0,0,9999,77777,9,999999999,0,0,0,99,0.2,0,0
2023,8,8,3,60,9,27.2,24.3,84.0,101325,0,0,0,0,0,0,0,0,0,0,0,20.4,0,0,9999,77777,9,999999999,0,0,0,99,0.2,0,0
2023,8,8,4,60,9,28.0,24.2,80.0,101325,0,0,0,0,0,0,0,0,0,0,0,21.6,0,0,9999,77777,9,999999999,0,0,0,99,0.2,0,0
2023,8,8,5,60,9,28.5,24.0,77.0,101325,0,0,0,0,0,0,0,0,0,0,0,23.9,0,0,9999,77777,9,999999999,0,0,0,99,0.2,0,0
2023,8,8,6,60,9,28.7,24.4,78.0,101325,0,0,0,0,0,0,0,0,0,0,0,24.5,0,0,9999,77777,9,999999999,0,0,0,99,0.2,0,0
2023,8,8,7,60,9,28.9,24.6,78.0,101325,0,0,0,0,0,0,0,0,0,0,0,24.7,0,0,9999,77777,9,999999999,0,0,0,99,0.2,0,0
2023,8,8,8,60,9,29.0,24.6,77.0,101325,0,0,0,0,0,0,0,0,0,0,0,24.0,0,0,9999,77777,9,999999999,0,0,0,99,0.2,0,0
2023,8,8,9,60,9,29.1,24.6,77.0,101325,0,0,0,0,0,0,0,0,0,0,0,22.9,0,0,9999,77777,9,999999999,0,0,0,99,0.2,0,0
2023,8,8,10,60,9,29.0,24.6,77.0,101325,0,0,0,0,0,0,0,0,0,0,0,23.4,0,0,9999,77777,9,999999999,0,0,0,99,0.2,0,0
2023,8,8,11,60,9,28.9,24.4,77.0,101325,0,0,0,0,0,0,0,0,0,0,0,22.1,0,0,9999,77777,9,999999999,0,0,0,99,0.2,0,0
2023,8,8,12,60,9,28.4,24.3,79.0,101325,0,0,0,0,0,0,0,0,0,0,0,21.6,0,0,9999,77777,9,999999999,0,0,0,99,0.2,0,0
2023,8,8,13,60,9,27.7,23.9,80.0,101325,0,0,0,0,0,0,0,0,0,0,0,18.4,0,0,9999,77777,9,999999999,0,0,0,99,0.2,0,0
2023,8,8,14,60,9,27.2,23.7,81.0,101325,0,0,0,0,0,0,0,0,0,0,0,15.7,0,0,9999,77777,9,999999999,0,0,0,99,0.2,0,0
2023,8,8,15,60,9,26.8,23.3,81.0,101325,0,0,0,0,0,0,0,0,0,0,0,15.3,0,0,9999,77777,9,999999999,0,0,0,99,0.2,0,0
2023,8,8,16,60,9,26.7,23.5,83.0,101325,0,0,0,0,0,0,0,0,0,0,0,13.6,0,0,9999,77777,9,999999999,0,0,0,99,0.2,0,0
2023,8,8,17,60,9,26.6,23.7,84.0,101325,0,0,0,0,0,0,0,0,0,0,0,13.5,0,0,9999,77777,9,999999999,0,0,0,99,0.2,0,0
2023,8,8,18,60,9,26.2,24.0,87.0,101325,0,0,0,0,0,0,0,0,0,0,0,14.5,0,0,9999,77777,9,999999999,0,0,0,99,0.2,0,0
2023,8,8,19,60,9,26.3,24.3,89.0,101325,0,0,0,0,0,0,0,0,0,0,0,12.2,0,0,9999,77777,9,999999999,0,0,0,99,0.2,0,0
2023,8,8,20,60,9,26.2,23.9,87.0,101325,0,0,0,0,0,0,0,0,0,0,0,15.7,0,0,9999,77777,9,999999999,0,0,0,99,0.2,0,0
2023,8,8,21,60,9,26.3,23.1,83.0,101325,0,0,0,0,0,0,0,0,0,0,0,16.2,0,0,9999,77777,9,999999999,0,0,0,99,0.2,0,0
2023,8,8,22,60,9,26.2,24.3,89.0,101325,0,0,0,0,0,0,0,0,0,0,0,14.6,0,0,9999,77777,9,999999999,0,0,0,99,0.2,0,0
2023,8,8,23,60,9,25.7,23.6,88.0,101325,0,0,0,0,0,0,0,0,0,0,0,16.6,0,0,9999,77777,9,999999999,0,0,0,99,0.2,0,0
2023,8,8,24,60,9,26.0,23.8,88.0,101325,0,0,0,0,0,0,0,0,0,0,0,17.7,0,0,9999,77777,9,999999999,0,0,0,99,0.2,0,0
2023,8,9,1,60,9,26.1,23.7,87.0,101325,0,0,0,0,0,0,0,0,0,0,0,15.5,0,0,9999,77777,9,999999999,0,0,0,99,0.2,0,0
2023,8,9,2,60,9,26.5,24.2,87.0,101325,0,0,0,0,0,0,0,0,0,0,0,15.5,0,0,9999,77777,9,999999999,0,0,0,99,0.2,0,0
2023,8,9,3,60,9,26.9,24.8,88.0,101325,0,0,0,0,0,0,0,0,0,0,0,16.1,0,0,9999,77777,9,999999999,0,0,0,99,0.2,0,0
2023,8,9,4,60,9,27.5,24.3,83.0,101325,0,0,0,0,0,0,0,0,0,0,0,17.5,0,0,9999,77777,9,999999999,0,0,0,99,0.2,0,0
2023,8,9,5,60,9,28.2,24.8,82.0,101325,0,0,0,0,0,0,0,0,0,0,0,17.0,0,0,9999,77777,9,999999999,0,0,0,99,0.2,0,0
2023,8,9,6,60,9,28.8,24.1,76.0,101325,0,0,0,0,0,0,0,0,0,0,0,18.7,0,0,9999,77777,9,999999999,0,0,0,99,0.2,0,0
2023,8,9,7,60,9,28.5,24.1,77.0,101325,0,0,0,0,0,0,0,0,0,0,0,19.6,0,0,9999,77777,9,999999999,0,0,0,99,0.2,0,0
2023,8,9,8,60,9,28.1,24.2,79.0,101325,0,0,0,0,0,0,0,0,0,0,0,20.1,0,0,9999,77777,9,999999999,0,0,0,99,0.2,0,0
2023,8,9,9,60,9,28.8,24.7,79.0,101325,0,0,0,0,0,0,0,0,0,0,0,18.3,0,0,9999,77777,9,999999999,0,0,0,99,0.2,0,0
2023,8,9,10,60,9,29.1,24.6,77.0,101325,0,0,0,0,0,0,0,0,0,0,0,19.4,0,0,9999,77777,9,999999999,0,0,0,99,0.2,0,0
2023,8,9,11,60,9,28.7,24.5,78.0,101325,0,0,0,0,0,0,0,0,0,0,0,20.2,0,0,9999,77777,9,999999999,0,0,0,99,0.2,0,0
2023,8,9,12,60,9,28.5,24.4,78.0,101325,0,0,0,0,0,0,0,0,0,0,0,19.4,0,0,9999,77777,9,999999999,0,0,0,99,0.2,0,0
2023,8,9,13,60,9,27.7,23.6,78.0,101325,0,0,0,0,0,0,0,0,0,0,0,17.4,0,0,9999,77777,9,999999999,0,0,0,99,0.2,0,0
2023,8,9,14,60,9,27.2,23.8,82.0,101325,0,0,0,0,0,0,0,0,0,0,0,13.8,0,0,9999,77777,9,999999999,0,0,0,99,0.2,0,0
2023,8,9,15,60,9,27.1,23.8,82.0,101325,0,0,0,0,0,0,0,0,0,0,0,13.4,0,0,9999,77777,9,999999999,0,0,0,99,0.2,0,0
2023,8,9,16,60,9,26.8,24.0,85.0,101325,0,0,0,0,0,0,0,0,0,0,0,11.9,0,0,9999,77777,9,999999999,0,0,0,99,0.2,0,0
2023,8,9,17,60,9,26.6,24.1,86.0,101325,0,0,0,0,0,0,0,0,0,0,0,11.4,0,0,9999,77777,9,999999999,0,0,0,99,0.2,0,0
2023,8,9,18,60,9,26.5,24.1,87.0,101325,0,0,0,0,0,0,0,0,0,0,0,12.8,0,0,9999,77777,9,999999999,0,0,0,99,0.2,0,0
2023,8,9,19,60,9,26.4,23.9,86.0,101325,0,0,0,0,0,0,0,0,0,0,0,12.6,0,0,9999,77777,9,999999999,0,0,0,99,0.2,0,0
2023,8,9,20,60,9,26.2,23.8,86.0,101325,0,0,0,0,0,0,0,0,0,0,0,13.7,0,0,9999,77777,9,999999999,0,0,0,99,0.2,0,0
2023,8,9,21,60,9,26.2,23.9,87.0,101325,0,0,0,0,0,0,0,0,0,0,0,13.5,0,0,9999,77777,9,999999999,0,0,0,99,0.2,0,0
2023,8,9,22,60,9,26.0,23.8,88.0,101325,0,0,0,0,0,0,0,0,0,0,0,13.8,0,0,9999,77777,9,999999999,0,0,0,99,0.2,0,0
2023,8,9,23,60,9,26.1,23.6,86.0,101325,0,0,0,0,0,0,0,0,0,0,0,12.9,0,0,9999,77777,9,999999999,0,0,0,99,0.2,0,0
2023,8,9,24,60,9,26.0,23.8,88.0,101325,0,0,0,0,0,0,0,0,0,0,0,13.7,0,0,9999,77777,9,999999999,0,0,0,99,0.2,0,0
2023,8,10,1,60,9,26.1,24.2,90.0,101325,0,0,0,0,0,0,0,0,0,0,0,13.7,0,0,9999,77777,9,999999999,0,0,0,99,0.2,0,0
2023,8,10,2,60,9,26.5,23.9,86.0,101325,0,0,0,0,0,0,0,0,0,0,0,15.1,0,0,9999,77777,9,999999999,0,0,0,99,0.2,0,0
2023,8,10,3,60,9,26.0,23.8,88.0,101325,0,0,0,0,0,0,0,0,0,0,0,14.0,0,0,9999,77777,9,999999999,0,0,0,99,0.2,0,0
2023,8,10,4,60,9,25.9,24.2,91.0,101325,0,0,0,0,0,0,0,0,0,0,0,12.7,0,0,9999,77777,9,999999999,0,0,0,99,0.2,0,0
2023,8,10,5,60,9,26.3,24.0,87.0,101325,0,0,0,0,0,0,0,0,0,0,0,12.9,0,0,9999,77777,9,999999999,0,0,0,99,0.2,0,0
2023,8,10,6,60,9,26.1,23.8,87.0,101325,0,0,0,0,0,0,0,0,0,0,0,15.2,0,0,9999,77777,9,999999999,0,0,0,99,0.2,0,0
2023,8,10,7,60,9,27.0,23.9,83.0,101325,0,0,0,0,0,0,0,0,0,0,0,13.7,0,0,9999,77777,9,999999999,0,0,0,99,0.2,0,0
2023,8,10,8,60,9,27.4,24.0,82.0,101325,0,0,0,0,0,0,0,0,0,0,0,12.6,0,0,9999,77777,9,999999999,0,0,0,99,0.2,0,0
2023,8,10,9,60,9,28.0,24.5,81.0,101325,0,0,0,0,0,0,0,0,0,0,0,9.7,0,0,9999,77777,9,999999999,0,0,0,99,0.2,0,0
2023,8,10,10,60,9,27.5,24.4,83.0,101325,0,0,0,0,0,0,0,0,0,0,0,13.9,0,0,9999,77777,9,999999999,0,0,0,99,0.2,0,0
2023,8,10,11,60,9,28.4,24.2,78.0,101325,0,0,0,0,0,0,0,0,0,0,0,14.9,0,0,9999,77777,9,999999999,0,0,0,99,0.2,0,0
2023,8,10,12,60,9,27.6,23.5,79.0,101325,0,0,0,0,0,0,0,0,0,0,0,14.2,0,0,9999,77777,9,999999999,0,0,0,99,0.2,0,0
2023,8,10,13,60,9,27.2,23.4,80.0,101325,0,0,0,0,0,0,0,0,0,0,0,14.8,0,0,9999,77777,9,999999999,0,0,0,99,0.2,0,0
2023,8,10,14,60,9,26.8,24.0,85.0,101325,0,0,0,0,0,0,0,0,0,0,0,14.0,0,0,9999,77777,9,999999999,0,0,0,99,0.2,0,0
2023,8,10,15,60,9,26.7,23.7,84.0,101325,0,0,0,0,0,0,0,0,0,0,0,11.7,0,0,9999,77777,9,999999999,0,0,0,99,0.2,0,0
2023,8,10,16,60,9,26.6,23.7,84.0,101325,0,0,0,0,0,0,0,0,0,0,0,12.8,0,0,9999,77777,9,999999999,0,0,0,99,0.2,0,0
2023,8,10,17,60,9,26.5,23.8,85.0,101325,0,0,0,0,0,0,0,0,0,0,0,12.3,0,0,9999,77777,9,999999999,0,0,0,99,0.2,0,0
2023,8,10,18,60,9,26.4,23.8,86.0,101325,0,0,0,0,0,0,0,0,0,0,0,11.5,0,0,9999,77777,9,999999999,0,0,0,99,0.2,0,0
2023,8,10,19,60,9,26.2,23.9,87.0,101325,0,0,0,0,0,0,0,0,0,0,0,12.1,0,0,9999,77777,9,999999999,0,0,0,99,0.2,0,0
2023,8,10,20,60,9,26.0,23.6,86.0,101325,0,0,0,0,0,0,0,0,0,0,0,13.3,0,0,9999,77777,9,999999999,0,0,0,99,0.2,0,0
2023,8,10,21,60,9,25.9,23.9,88.0,101325,0,0,0,0,0,0,0,0,0,0,0,10.7,0,0,9999,77777,9,999999999,0,0,0,99,0.2,0,0
2023,8,10,22,60,9,25.8,23.8,89.0,101325,0,0,0,0,0,0,0,0,0,0,0,10.1,0,0,9999,77777,9,999999999,0,0,0,99,0.2,0,0
2023,8,10,23,60,9,25.5,23.7,90.0,101325,0,0,0,0,0,0,0,0,0,0,0,10.7,0,0,9999,77777,9,999999999,0,0,0,99,0.2,0,0
2023,8,10,24,60,9,25.5,23.8,90.0,101325,0,0,0,0,0,0,0,0,0,0,0,6.5,0,0,9999,77777,9,999999999,0,0,0,99,0.2,0,0
2023,8,11,1,60,9,26.1,24.0,88.0,101325,0,0,0,0,0,0,0,0,0,0,0,10.9,0,0,9999,77777,9,999999999,0,0,0,99,0.2,0,0
2023,8,11,2,60,9,26.2,24.1,89.0,101325,0,0,0,0,0,0,0,0,0,0,0,10.8,0,0,9999,77777,9,999999999,0,0,0,99,0.2,0,0
2023,8,11,3,60,9,26.9,24.5,86.0,101325,0,0,0,0,0,0,0,0,0,0,0,10.8,0,0,9999,77777,9,999999999,0,0,0,99,0.2,0,0
2023,8,11,4,60,9,27.8,24.5,82.0,101325,0,0,0,0,0,0,0,0,0,0,0,13.7,0,0,9999,77777,9,999999999,0,0,0,99,0.2,0,0
2023,8,11,5,60,9,28.3,23.6,76.0,101325,0,0,0,0,0,0,0,0,0,0,0,14.8,0,0,9999,77777,9,999999999,0,0,0,99,0.2,0,0
2023,8,11,6,60,9,28.4,23.7,76.0,101325,0,0,0,0,0,0,0,0,0,0,0,14.4,0,0,9999,77777,9,999999999,0,0,0,99,0.2,0,0
2023,8,11,7,60,9,28.7,24.2,77.0,101325,0,0,0,0,0,0,0,0,0,0,0,12.6,0,0,9999,77777,9,999999999,0,0,0,99,0.2,0,0
2023,8,11,8,60,9,28.7,24.0,76.0,101325,0,0,0,0,0,0,0,0,0,0,0,14.2,0,0,9999,77777,9,999999999,0,0,0,99,0.2,0,0
2023,8,11,9,60,9,28.9,24.5,77.0,101325,0,0,0,0,0,0,0,0,0,0,0,14.4,0,0,9999,77777,9,999999999,0,0,0,99,0.2,0,0
2023,8,11,10,60,9,29.0,24.2,75.0,101325,0,0,0,0,0,0,0,0,0,0,0,15.5,0,0,9999,77777,9,999999999,0,0,0,99,0.2,0,0
2023,8,11,11,60,9,29.0,24.0,75.0,101325,0,0,0,0,0,0,0,0,0,0,0,15.8,0,0,9999,77777,9,999999999,0,0,0,99,0.2,0,0
2023,8,11,12,60,9,28.8,23.7,74.0,101325,0,0,0,0,0,0,0,0,0,0,0,15.7,0,0,9999,77777,9,999999999,0,0,0,99,0.2,0,0
2023,8,11,13,60,9,28.0,23.5,77.0,101325,0,0,0,0,0,0,0,0,0,0,0,15.9,0,0,9999,77777,9,999999999,0,0,0,99,0.2,0,0
2023,8,11,14,60,9,27.6,23.7,80.0,101325,0,0,0,0,0,0,0,0,0,0,0,13.3,0,0,9999,77777,9,999999999,0,0,0,99,0.2,0,0
2023,8,11,15,60,9,27.1,23.5,81.0,101325,0,0,0,0,0,0,0,0,0,0,0,11.9,0,0,9999,77777,9,999999999,0,0,0,99,0.2,0,0
2023,8,11,16,60,9,26.7,23.5,82.0,101325,0,0,0,0,0,0,0,0,0,0,0,9.7,0,0,9999,77777,9,999999999,0,0,0,99,0.2,0,0
2023,8,11,17,60,9,26.6,23.5,83.0,101325,0,0,0,0,0,0,0,0,0,0,0,10.1,0,0,9999,77777,9,999999999,0,0,0,99,0.2,0,0
2023,8,11,18,60,9,26.4,23.5,84.0,101325,0,0,0,0,0,0,0,0,0,0,0,9.9,0,0,9999,77777,9,999999999,0,0,0,99,0.2,0,0
2023,8,11,19,60,9,26.1,23.5,86.0,101325,0,0,0,0,0,0,0,0,0,0,0,8.4,0,0,9999,77777,9,999999999,0,0,0,99,0.2,0,0
2023,8,11,20,60,9,25.9,23.5,87.0,101325,0,0,0,0,0,0,0,0,0,0,0,8.4,0,0,9999,77777,9,999999999,0,0,0,99,0.2,0,0
2023,8,11,21,60,9,25.4,23.5,89.0,101325,0,0,0,0,0,0,0,0,0,0,0,8.5,0,0,9999,77777,9,999999999,0,0,0,99,0.2,0,0
2023,8,11,22,60,9,25.7,23.4,87.0,101325,0,0,0,0,0,0,0,0,0,0,0,7.6,0,0,9999,77777,9,999999999,0,0,0,99,0.2,0,0
2023,8,11,23,60,9,25.0,23.3,91.0,101325,0,0,0,0,0,0,0,0,0,0,0,6.0,0,0,9999,77777,9,999999999,0,0,0,99,0.2,0,0
2023,8,11,24,60,9,24.8,23.0,90.0,101325,0,0,0,0,0,0,0,0,0,0,0,8.6,0,0,9999,77777,9,999999999,0,0,0,99,0.2,0,0
2023,8,12,1,60,9,24.1,22.5,91.0,101325,0,0,0,0,0,0,0,0,0,0,0,4.6,0,0,9999,77777,9,999999999,0,0,0,99,0.2,0,0
2023,8,12,2,60,9,25.0,23.5,91.0,101325,0,0,0,0,0,0,0,0,0,0,0,3.6,0,0,9999,77777,9,999999999,0,0,0,99,0.2,0,0
2023,8,12,3,60,9,24.6,23.2,92.0,101325,0,0,0,0,0,0,0,0,0,0,0,9.9,0,0,9999,77777,9,999999999,0,0,0,99,0.2,0,0
2023,8,12,4,60,9,25.4,23.4,89.0,101325,0,0,0,0,0,0,0,0,0,0,0,10.1,0,0,9999,77777,9,999999999,0,0,0,99,0.2,0,0
2023,8,12,5,60,9,26.3,23.7,86.0,101325,0,0,0,0,0,0,0,0,0,0,0,12.5,0,0,9999,77777,9,999999999,0,0,0,99,0.2,0,0
2023,8,12,6,60,9,26.9,23.9,84.0,101325,0,0,0,0,0,0,0,0,0,0,0,9.6,0,0,9999,77777,9,999999999,0,0,0,99,0.2,0,0
2023,8,12,7,60,9,27.2,23.9,82.0,101325,0,0,0,0,0,0,0,0,0,0,0,12.4,0,0,9999,77777,9,999999999,0,0,0,99,0.2,0,0
2023,8,12,8,60,9,26.5,23.7,84.0,101325,0,0,0,0,0,0,0,0,0,0,0,17.8,0,0,9999,77777,9,999999999,0,0,0,99,0.2,0,0
2023,8,12,9,60,9,26.8,23.0,80.0,101325,0,0,0,0,0,0,0,0,0,0,0,18.8,0,0,9999,77777,9,999999999,0,0,0,99,0.2,0,0
2023,8,12,10,60,9,26.8,23.0,80.0,101325,0,0,0,0,0,0,0,0,0,0,0,14.1,0,0,9999,77777,9,999999999,0,0,0,99,0.2,0,0
2023,8,12,11,60,9,26.9,23.3,81.0,101325,0,0,0,0,0,0,0,0,0,0,0,15.3,0,0,9999,77777,9,999999999,0,0,0,99,0.2,0,0
2023,8,12,12,60,9,26.7,23.5,83.0,101325,0,0,0,0,0,0,0,0,0,0,0,15.4,0,0,9999,77777,9,999999999,0,0,0,99,0.2,0,0
2023,8,12,13,60,9,26.8,23.4,82.0,101325,0,0,0,0,0,0,0,0,0,0,0,14.8,0,0,9999,77777,9,999999999,0,0,0,99,0.2,0,0
2023,8,12,14,60,9,26.1,23.5,86.0,101325,0,0,0,0,0,0,0,0,0,0,0,10.1,0,0,9999,77777,9,999999999,0,0,0,99,0.2,0,0
2023,8,12,15,60,9,25.9,24.1,90.0,101325,0,0,0,0,0,0,0,0,0,0,0,9.7,0,0,9999,77777,9,999999999,0,0,0,99,0.2,0,0
2023,8,12,16,60,9,26.0,24.1,89.0,101325,0,0,0,0,0,0,0,0,0,0,0,9.8,0,0,9999,77777,9,999999999,0,0,0,99,0.2,0,0
2023,8,12,17,60,9,26.0,24.1,89.0,101325,0,0,0,0,0,0,0,0,0,0,0,12.4,0,0,9999,77777,9,999999999,0,0,0,99,0.2,0,0
2023,8,12,18,60,9,26.1,23.9,87.0,101325,0,0,0,0,0,0,0,0,0,0,0,13.8,0,0,9999,77777,9,999999999,0,0,0,99,0.2,0,0
2023,8,12,19,60,9,26.2,23.8,87.0,101325,0,0,0,0,0,0,0,0,0,0,0,14.6,0,0,9999,77777,9,999999999,0,0,0,99,0.2,0,0
2023,8,12,20,60,9,25.9,23.8,88.0,101325,0,0,0,0,0,0,0,0,0,0,0,14.0,0,0,9999,77777,9,999999999,0,0,0,99,0.2,0,0
2023,8,12,21,60,9,25.6,23.4,88.0,101325,0,0,0,0,0,0,0,0,0,0,0,13.6,0,0,9999,77777,9,999999999,0,0,0,99,0.2,0,0
2023,8,12,22,60,9,25.8,23.1,85.0,101325,0,0,0,0,0,0,0,0,0,0,0,14.6,0,0,9999,77777,9,999999999,0,0,0,99,0.2,0,0
2023,8,12,23,60,9,25.6,23.6,88.0,101325,0,0,0,0,0,0,0,0,0,0,0,15.4,0,0,9999,77777,9,999999999,0,0,0,99,0.2,0,0
2023,8,12,24,60,9,25.4,23.5,89.0,101325,0,0,0,0,0,0,0,0,0,0,0,14.8,0,0,9999,77777,9,999999999,0,0,0,99,0.2,0,0
2023,8,13,1,60,9,25.8,23.4,87.0,101325,0,0,0,0,0,0,0,0,0,0,0,12.9,0,0,9999,77777,9,999999999,0,0,0,99,0.2,0,0
2023,8,13,2,60,9,25.5,23.5,89.0,101325,0,0,0,0,0,0,0,0,0,0,0,13.5,0,0,9999,77777,9,999999999,0,0,0,99,0.2,0,0
2023,8,13,3,60,9,26.1,23.6,86.0,101325,0,0,0,0,0,0,0,0,0,0,0,14.4,0,0,9999,77777,9,999999999,0,0,0,99,0.2,0,0
2023,8,13,4,60,9,26.9,24.0,84.0,101325,0,0,0,0,0,0,0,0,0,0,0,15.1,0,0,9999,77777,9,999999999,0,0,0,99,0.2,0,0
2023,8,13,5,60,9,27.4,24.2,83.0,101325,0,0,0,0,0,0,0,0,0,0,0,15.0,0,0,9999,77777,9,999999999,0,0,0,99,0.2,0,0
2023,8,13,6,60,9,28.2,24.3,79.0,101325,0,0,0,0,0,0,0,0,0,0,0,20.5,0,0,9999,77777,9,999999999,0,0,0,99,0.2,0,0
2023,8,13,7,60,9,28.9,24.5,77.0,101325,0,0,0,0,0,0,0,0,0,0,0,20.3,0,0,9999,77777,9,999999999,0,0,0,99,0.2,0,0
2023,8,13,8,60,9,29.2,24.2,74.0,101325,0,0,0,0,0,0,0,0,0,0,0,22.3,0,0,9999,77777,9,999999999,0,0,0,99,0.2,0,0
2023,8,13,9,60,9,29.2,24.2,74.0,101325,0,0,0,0,0,0,0,0,0,0,0,23.7,0,0,9999,77777,9,999999999,0,0,0,99,0.2,0,0
2023,8,13,10,60,9,29.0,24.1,75.0,101325,0,0,0,0,0,0,0,0,0,0,0,24.7,0,0,9999,77777,9,999999999,0,0,0,99,0.2,0,0
2023,8,13,11,60,9,28.7,23.9,75.0,101325,0,0,0,0,0,0,0,0,0,0,0,24.5,0,0,9999,77777,9,999999999,0,0,0,99,0.2,0,0
2023,8,13,12,60,9,28.5,23.8,76.0,101325,0,0,0,0,0,0,0,0,0,0,0,23.4,0,0,9999,77777,9,999999999,0,0,0,99,0.2,0,0
2023,8,13,13,60,9,27.4,24.1,82.0,101325,0,0,0,0,0,0,0,0,0,0,0,17.1,0,0,9999,77777,9,999999999,0,0,0,99,0.2,0,0
2023,8,13,14,60,9,27.5,24.0,81.0,101325,0,0,0,0,0,0,0,0,0,0,0,17.3,0,0,9999,77777,9,999999999,0,0,0,99,0.2,0,0
2023,8,13,15,60,9,27.2,23.7,81.0,101325,0,0,0,0,0,0,0,0,0,0,0,17.9,0,0,9999,77777,9,999999999,0,0,0,99,0.2,0,0
2023,8,13,16,60,9,27.1,23.7,82.0,101325,0,0,0,0,0,0,0,0,0,0,0,17.9,0,0,9999,77777,9,999999999,0,0,0,99,0.2,0,0
2023,8,13,17,60,9,27.0,23.7,82.0,101325,0,0,0,0,0,0,0,0,0,0,0,17.9,0,0,9999,77777,9,999999999,0,0,0,99,0.2,0,0
2023,8,13,18,60,9,26.9,23.7,82.0,101325,0,0,0,0,0,0,0,0,0,0,0,18.0,0,0,9999,77777,9,999999999,0,0,0,99,0.2,0,0
2023,8,13,19,60,9,26.8,23.7,83.0,101325,0,0,0,0,0,0,0,0,0,0,0,18.5,0,0,9999,77777,9,999999999,0,0,0,99,0.2,0,0
2023,8,13,20,60,9,26.7,23.6,83.0,101325,0,0,0,0,0,0,0,0,0,0,0,18.5,0,0,9999,77777,9,999999999,0,0,0,99,0.2,0,0
2023,8,13,21,60,9,26.0,23.9,88.0,101325,0,0,0,0,0,0,0,0,0,0,0,19.3,0,0,9999,77777,9,999999999,0,0,0,99,0.2,0,0
2023,8,13,22,60,9,26.2,24.0,88.0,101325,0,0,0,0,0,0,0,0,0,0,0,17.4,0,0,9999,77777,9,999999999,0,0,0,99,0.2,0,0
2023,8,13,23,60,9,26.1,24.0,88.0,101325,0,0,0,0,0,0,0,0,0,0,0,17.9,0,0,9999,77777,9,999999999,0,0,0,99,0.2,0,0
2023,8,13,24,60,9,25.8,23.8,89.0,101325,0,0,0,0,0,0,0,0,0,0,0,18.3,0,0,9999,77777,9,999999999,0,0,0,99,0.2,0,0
2023,8,14,1,60,9,26.7,24.0,85.0,101325,0,0,0,0,0,0,0,0,0,0,0,16.5,0,0,9999,77777,9,999999999,0,0,0,99,0.2,0,0
2023,8,14,2,60,9,26.5,23.5,83.0,101325,0,0,0,0,0,0,0,0,0,0,0,15.8,0,0,9999,77777,9,999999999,0,0,0,99,0.2,0,0
2023,8,14,3,60,9,26.6,23.8,84.0,101325,0,0,0,0,0,0,0,0,0,0,0,16.3,0,0,9999,77777,9,999999999,0,0,0,99,0.2,0,0
2023,8,14,4,60,9,27.2,24.2,84.0,101325,0,0,0,0,0,0,0,0,0,0,0,14.9,0,0,9999,77777,9,999999999,0,0,0,99,0.2,0,0
2023,8,14,5,60,9,27.1,23.9,83.0,101325,0,0,0,0,0,0,0,0,0,0,0,17.8,0,0,9999,77777,9,999999999,0,0,0,99,0.2,0,0
2023,8,14,6,60,9,28.3,24.3,79.0,101325,0,0,0,0,0,0,0,0,0,0,0,19.1,0,0,9999,77777,9,999999999,0,0,0,99,0.2,0,0
2023,8,14,7,60,9,28.8,24.6,78.0,101325,0,0,0,0,0,0,0,0,0,0,0,21.3,0,0,9999,77777,9,999999999,0,0,0,99,0.2,0,0
2023,8,14,8,60,9,29.0,24.3,76.0,101325,0,0,0,0,0,0,0,0,0,0,0,22.9,0,0,9999,77777,9,999999999,0,0,0,99,0.2,0,0
2023,8,14,9,60,9,29.4,24.3,74.0,101325,0,0,0,0,0,0,0,0,0,0,0,23.5,0,0,9999,77777,9,999999999,0,0,0,99,0.2,0,0
2023,8,14,10,60,9,29.2,24.2,74.0,101325,0,0,0,0,0,0,0,0,0,0,0,24.8,0,0,9999,77777,9,999999999,0,0,0,99,0.2,0,0
2023,8,14,11,60,9,29.1,24.1,75.0,101325,0,0,0,0,0,0,0,0,0,0,0,24.3,0,0,9999,77777,9,999999999,0,0,0,99,0.2,0,0
2023,8,14,12,60,9,28.8,23.6,74.0,101325,0,0,0,0,0,0,0,0,0,0,0,23.0,0,0,9999,77777,9,999999999,0,0,0,99,0.2,0,0
2023,8,14,13,60,9,28.0,23.3,76.0,101325,0,0,0,0,0,0,0,0,0,0,0,21.2,0,0,9999,77777,9,999999999,0,0,0,99,0.2,0,0
2023,8,14,14,60,9,27.6,23.4,78.0,101325,0,0,0,0,0,0,0,0,0,0,0,18.2,0,0,9999,77777,9,999999999,0,0,0,99,0.2,0,0
2023,8,14,15,60,9,27.4,23.0,77.0,101325,0,0,0,0,0,0,0,0,0,0,0,18.3,0,0,9999,77777,9,999999999,0,0,0,99,0.2,0,0
2023,8,14,16,60,9,27.2,22.9,77.0,101325,0,0,0,0,0,0,0,0,0,0,0,18.1,0,0,9999,77777,9,999999999,0,0,0,99,0.2,0,0
2023,8,14,17,60,9,27.2,22.9,78.0,101325,0,0,0,0,0,0,0,0,0,0,0,18.9,0,0,9999,77777,9,999999999,0,0,0,99,0.2,0,0
2023,8,14,18,60,9,27.0,23.0,79.0,101325,0,0,0,0,0,0,0,0,0,0,0,18.4,0,0,9999,77777,9,999999999,0,0,0,99,0.2,0,0
2023,8,14,19,60,9,26.8,23.1,80.0,101325,0,0,0,0,0,0,0,0,0,0,0,16.1,0,0,9999,77777,9,999999999,0,0,0,99,0.2,0,0
2023,8,14,20,60,9,26.8,22.8,79.0,101325,0,0,0,0,0,0,0,0,0,0,0,17.2,0,0,9999,77777,9,999999999,0,0,0,99,0.2,0,0
2023,8,14,21,60,9,26.8,22.9,79.0,101325,0,0,0,0,0,0,0,0,0,0,0,18.5,0,0,9999,77777,9,999999999,0,0,0,99,0.2,0,0
2023,8,14,22,60,9,26.6,22.9,80.0,101325,0,0,0,0,0,0,0,0,0,0,0,17.1,0,0,9999,77777,9,999999999,0,0,0,99,0.2,0,0
2023,8,14,23,60,9,26.5,23.0,81.0,101325,0,0,0,0,0,0,0,0,0,0,0,14.9,0,0,9999,77777,9,999999999,0,0,0,99,0.2,0,0
2023,8,14,24,60,9,26.2,23.3,84.0,101325,0,0,0,0,0,0,0,0,0,0,0,14.3,0,0,9999,77777,9,999999999,0,0,0,99,0.2,0,0
2023,8,15,1,60,9,26.8,23.7,83.0,101325,0,0,0,0,0,0,0,0,0,0,0,13.2,0,0,9999,77777,9,999999999,0,0,0,99,0.2,0,0
2023,8,15,2,60,9,26.9,23.2,80.0,101325,0,0,0,0,0,0,0,0,0,0,0,14.4,0,0,9999,77777,9,999999999,0,0,0,99,0.2,0,0
2023,8,15,3,60,9,26.3,23.9,86.0,101325,0,0,0,0,0,0,0,0,0,0,0,11.2,0,0,9999,77777,9,999999999,0,0,0,99,0.2,0,0
2023,8,15,4,60,9,26.5,23.9,86.0,101325,0,0,0,0,0,0,0,0,0,0,0,12.8,0,0,9999,77777,9,999999999,0,0,0,99,0.2,0,0
2023,8,15,5,60,9,26.6,23.9,85.0,101325,0,0,0,0,0,0,0,0,0,0,0,11.0,0,0,9999,77777,9,999999999,0,0,0,99,0.2,0,0
2023,8,15,6,60,9,27.8,24.4,82.0,101325,0,0,0,0,0,0,0,0,0,0,0,12.7,0,0,9999,77777,9,999999999,0,0,0,99,0.2,0,0
2023,8,15,7,60,9,28.0,24.3,81.0,101325,0,0,0,0,0,0,0,0,0,0,0,15.9,0,0,9999,77777,9,999999999,0,0,0,99,0.2,0,0
2023,8,15,8,60,9,27.0,24.4,86.0,101325,0,0,0,0,0,0,0,0,0,0,0,15.6,0,0,9999,77777,9,999999999,0,0,0,99,0.2,0,0
2023,8,15,9,60,9,27.1,24.2,84.0,101325,0,0,0,0,0,0,0,0,0,0,0,15.3,0,0,9999,77777,9,999999999,0,0,0,99,0.2,0,0
2023,8,15,10,60,9,28.1,24.3,80.0,101325,0,0,0,0,0,0,0,0,0,0,0,16.1,0,0,9999,77777,9,999999999,0,0,0,99,0.2,0,0
2023,8,15,11,60,9,28.2,24.4,80.0,101325,0,0,0,0,0,0,0,0,0,0,0,17.7,0,0,9999,77777,9,999999999,0,0,0,99,0.2,0,0
2023,8,15,12,60,9,27.9,24.5,82.0,101325,0,0,0,0,0,0,0,0,0,0,0,18.7,0,0,9999,77777,9,999999999,0,0,0,99,0.2,0,0
2023,8,15,13,60,9,27.3,24.2,83.0,101325,0,0,0,0,0,0,0,0,0,0,0,15.6,0,0,9999,77777,9,999999999,0,0,0,99,0.2,0,0
2023,8,15,14,60,9,27.0,24.1,84.0,101325,0,0,0,0,0,0,0,0,0,0,0,14.3,0,0,9999,77777,9,999999999,0,0,0,99,0.2,0,0
2023,8,15,15,60,9,26.7,23.8,84.0,101325,0,0,0,0,0,0,0,0,0,0,0,11.6,0,0,9999,77777,9,999999999,0,0,0,99,0.2,0,0
2023,8,15,16,60,9,26.6,23.8,85.0,101325,0,0,0,0,0,0,0,0,0,0,0,11.4,0,0,9999,77777,9,999999999,0,0,0,99,0.2,0,0
2023,8,15,17,60,9,26.7,23.8,84.0,101325,0,0,0,0,0,0,0,0,0,0,0,11.7,0,0,9999,77777,9,999999999,0,0,0,99,0.2,0,0
2023,8,15,18,60,9,26.8,23.9,84.0,101325,0,0,0,0,0,0,0,0,0,0,0,11.8,0,0,9999,77777,9,999999999,0,0,0,99,0.2,0,0
2023,8,15,19,60,9,26.7,23.9,84.0,101325,0,0,0,0,0,0,0,0,0,0,0,12.0,0,0,9999,77777,9,999999999,0,0,0,99,0.2,0,0
2023,8,15,20,60,9,26.4,23.9,86.0,101325,0,0,0,0,0,0,0,0,0,0,0,11.4,0,0,9999,77777,9,999999999,0,0,0,99,0.2,0,0
2023,8,15,21,60,9,26.1,23.5,86.0,101325,0,0,0,0,0,0,0,0,0,0,0,10.5,0,0,9999,77777,9,999999999,0,0,0,99,0.2,0,0
2023,8,15,22,60,9,25.7,23.8,89.0,101325,0,0,0,0,0,0,0,0,0,0,0,10.2,0,0,9999,77777,9,999999999,0,0,0,99,0.2,0,0
2023,8,15,23,60,9,25.2,23.9,93.0,101325,0,0,0,0,0,0,0,0,0,0,0,9.7,0,0,9999,77777,9,999999999,0,0,0,99,0.2,0,0
2023,8,15,24,60,9,25.2,24.0,93.0,101325,0,0,0,0,0,0,0,0,0,0,0,8.4,0,0,9999,77777,9,999999999,0,0,0,99,0.2,0,0
2023,8,16,1,60,9,25.6,24.2,92.0,101325,0,0,0,0,0,0,0,0,0,0,0,8.0,0,0,9999,77777,9,999999999,0,0,0,99,0.2,0,0
2023,8,16,2,60,9,25.8,24.3,91.0,101325,0,0,0,0,0,0,0,0,0,0,0,10.6,0,0,9999,77777,9,999999999,0,0,0,99,0.2,0,0
2023,8,16,3,60,9,26.2,24.4,90.0,101325,0,0,0,0,0,0,0,0,0,0,0,10.2,0,0,9999,77777,9,999999999,0,0,0,99,0.2,0,0
2023,8,16,4,60,9,27.0,24.2,85.0,101325,0,0,0,0,0,0,0,0,0,0,0,7.4,0,0,9999,77777,9,999999999,0,0,0,99,0.2,0,0
2023,8,16,5,60,9,27.6,24.6,83.0,101325,0,0,0,0,0,0,0,0,0,0,0,10.1,0,0,9999,77777,9,999999999,0,0,0,99,0.2,0,0
2023,8,16,6,60,9,28.2,24.7,81.0,101325,0,0,0,0,0,0,0,0,0,0,0,10.5,0,0,9999,77777,9,999999999,0,0,0,99,0.2,0,0
2023,8,16,7,60,9,29.0,24.7,78.0,101325,0,0,0,0,0,0,0,0,0,0,0,12.6,0,0,9999,77777,9,999999999,0,0,0,99,0.2,0,0
2023,8,16,8,60,9,28.9,24.7,78.0,101325,0,0,0,0,0,0,0,0,0,0,0,16.3,0,0,9999,77777,9,999999999,0,0,0,99,0.2,0,0
2023,8,16,9,60,9,28.9,24.6,78.0,101325,0,0,0,0,0,0,0,0,0,0,0,18.8,0,0,9999,77777,9,999999999,0,0,0,99,0.2,0,0
2023,8,16,10,60,9,28.8,24.6,78.0,101325,0,0,0,0,0,0,0,0,0,0,0,19.4,0,0,9999,77777,9,999999999,0,0,0,99,0.2,0,0
2023,8,16,11,60,9,28.7,24.3,77.0,101325,0,0,0,0,0,0,0,0,0,0,0,20.9,0,0,9999,77777,9,999999999,0,0,0,99,0.2,0,0
2023,8,16,12,60,9,28.6,23.9,76.0,101325,0,0,0,0,0,0,0,0,0,0,0,20.2,0,0,9999,77777,9,999999999,0,0,0,99,0.2,0,0
2023,8,16,13,60,9,27.4,24.0,82.0,101325,0,0,0,0,0,0,0,0,0,0,0,16.8,0,0,9999,77777,9,999999999,0,0,0,99,0.2,0,0
2023,8,16,14,60,9,27.0,23.7,82.0,101325,0,0,0,0,0,0,0,0,0,0,0,15.4,0,0,9999,77777,9,999999999,0,0,0,99,0.2,0,0
2023,8,16,15,60,9,26.7,23.5,83.0,101325,0,0,0,0,0,0,0,0,0,0,0,13.8,0,0,9999,77777,9,999999999,0,0,0,99,0.2,0,0
2023,8,16,16,60,9,26.5,23.5,84.0,101325,0,0,0,0,0,0,0,0,0,0,0,12.0,0,0,9999,77777,9,999999999,0,0,0,99,0.2,0,0
2023,8,16,17,60,9,26.3,23.6,85.0,101325,0,0,0,0,0,0,0,0,0,0,0,11.2,0,0,9999,77777,9,999999999,0,0,0,99,0.2,0,0
2023,8,16,18,60,9,26.1,23.6,86.0,101325,0,0,0,0,0,0,0,0,0,0,0,9.7,0,0,9999,77777,9,999999999,0,0,0,99,0.2,0,0
2023,8,16,19,60,9,25.8,23.7,88.0,101325,0,0,0,0,0,0,0,0,0,0,0,8.6,0,0,9999,77777,9,999999999,0,0,0,99,0.2,0,0
2023,8,16,20,60,9,25.4,23.9,91.0,101325,0,0,0,0,0,0,0,0,0,0,0,9.4,0,0,9999,77777,9,999999999,0,0,0,99,0.2,0,0
2023,8,16,21,60,9,25.3,23.9,92.0,101325,0,0,0,0,0,0,0,0,0,0,0,9.2,0,0,9999,77777,9,999999999,0,0,0,99,0.2,0,0
2023,8,16,22,60,9,25.2,23.8,92.0,101325,0,0,0,0,0,0,0,0,0,0,0,8.7,0,0,9999,77777,9,999999999,0,0,0,99,0.2,0,0
2023,8,16,23,60,9,25.1,23.8,92.0,101325,0,0,0,0,0,0,0,0,0,0,0,10.1,0,0,9999,77777,9,999999999,0,0,0,99,0.2,0,0
2023,8,16,24,60,9,25.0,23.6,92.0,101325,0,0,0,0,0,0,0,0,0,0,0,9.0,0,0,9999,77777,9,999999999,0,0,0,99,0.2,0,0
2023,8,17,1,60,9,25.5,23.6,89.0,101325,0,0,0,0,0,0,0,0,0,0,0,8.9,0,0,9999,77777,9,999999999,0,0,0,99,0.2,0,0
2023,8,17,2,60,9,25.9,23.9,89.0,101325,0,0,0,0,0,0,0,0,0,0,0,8.4,0,0,9999,77777,9,999999999,0,0,0,99,0.2,0,0
2023,8,17,3,60,9,26.7,24.3,87.0,101325,0,0,0,0,0,0,0,0,0,0,0,10.0,0,0,9999,77777,9,999999999,0,0,0,99,0.2,0,0
2023,8,17,4,60,9,26.9,23.1,80.0,101325,0,0,0,0,0,0,0,0,0,0,0,14.6,0,0,9999,77777,9,999999999,0,0,0,99,0.2,0,0
2023,8,17,5,60,9,27.4,24.2,82.0,101325,0,0,0,0,0,0,0,0,0,0,0,14.0,0,0,9999,77777,9,999999999,0,0,0,99,0.2,0,0
2023,8,17,6,60,9,28.2,24.3,79.0,101325,0,0,0,0,0,0,0,0,0,0,0,14.3,0,0,9999,77777,9,999999999,0,0,0,99,0.2,0,0
2023,8,17,7,60,9,28.6,24.2,77.0,101325,0,0,0,0,0,0,0,0,0,0,0,14.8,0,0,9999,77777,9,999999999,0,0,0,99,0.2,0,0
2023,8,17,8,60,9,29.3,23.9,73.0,101325,0,0,0,0,0,0,0,0,0,0,0,17.3,0,0,9999,77777,9,999999999,0,0,0,99,0.2,0,0
2023,8,17,9,60,9,29.2,23.8,73.0,101325,0,0,0,0,0,0,0,0,0,0,0,19.1,0,0,9999,77777,9,999999999,0,0,0,99,0.2,0,0
2023,8,17,10,60,9,28.8,23.7,74.0,101325,0,0,0,0,0,0,0,0,0,0,0,20.7,0,0,9999,77777,9,999999999,0,0,0,99,0.2,0,0
2023,8,17,11,60,9,28.2,23.4,75.0,101325,0,0,0,0,0,0,0,0,0,0,0,20.6,0,0,9999,77777,9,999999999,0,0,0,99,0.2,0,0
2023,8,17,12,60,9,27.9,23.8,78.0,101325,0,0,0,0,0,0,0,0,0,0,0,19.3,0,0,9999,77777,9,999999999,0,0,0,99,0.2,0,0
2023,8,17,13,60,9,27.5,23.6,79.0,101325,0,0,0,0,0,0,0,0,0,0,0,17.5,0,0,9999,77777,9,999999999,0,0,0,99,0.2,0,0
2023,8,17,14,60,9,27.0,23.5,81.0,101325,0,0,0,0,0,0,0,0,0,0,0,15.8,0,0,9999,77777,9,999999999,0,0,0,99,0.2,0,0
2023,8,17,15,60,9,26.6,23.3,82.0,101325,0,0,0,0,0,0,0,0,0,0,0,14.2,0,0,9999,77777,9,999999999,0,0,0,99,0.2,0,0
2023,8,17,16,60,9,26.5,23.3,83.0,101325,0,0,0,0,0,0,0,0,0,0,0,13.8,0,0,9999,77777,9,999999999,0,0,0,99,0.2,0,0
2023,8,17,17,60,9,26.4,23.4,84.0,101325,0,0,0,0,0,0,0,0,0,0,0,13.1,0,0,9999,77777,9,999999999,0,0,0,99,0.2,0,0
2023,8,17,18,60,9,26.1,23.5,86.0,101325,0,0,0,0,0,0,0,0,0,0,0,13.5,0,0,9999,77777,9,999999999,0,0,0,99,0.2,0,0
2023,8,17,19,60,9,26.0,23.6,87.0,101325,0,0,0,0,0,0,0,0,0,0,0,12.1,0,0,9999,77777,9,999999999,0,0,0,99,0.2,0,0
2023,8,17,20,60,9,25.8,23.4,87.0,101325,0,0,0,0,0,0,0,0,0,0,0,11.4,0,0,9999,77777,9,999999999,0,0,0,99,0.2,0,0
2023,8,17,21,60,9,25.9,23.3,86.0,101325,0,0,0,0,0,0,0,0,0,0,0,11.6,0,0,9999,77777,9,999999999,0,0,0,99,0.2,0,0
2023,8,17,22,60,9,25.8,23.2,85.0,101325,0,0,0,0,0,0,0,0,0,0,0,12.1,0,0,9999,77777,9,999999999,0,0,0,99,0.2,0,0
2023,8,17,23,60,9,25.8,23.2,86.0,101325,0,0,0,0,0,0,0,0,0,0,0,11.4,0,0,9999,77777,9,999999999,0,0,0,99,0.2,0,0
2023,8,17,24,60,9,25.6,23.4,87.0,101325,0,0,0,0,0,0,0,0,0,0,0,10.1,0,0,9999,77777,9,999999999,0,0,0,99,0.2,0,0
2023,8,18,1,60,9,26.1,23.2,84.0,101325,0,0,0,0,0,0,0,0,0,0,0,12.6,0,0,9999,77777,9,999999999,0,0,0,99,0.2,0,0
2023,8,18,2,60,9,26.2,23.2,84.0,101325,0,0,0,0,0,0,0,0,0,0,0,9.7,0,0,9999,77777,9,999999999,0,0,0,99,0.2,0,0
2023,8,18,3,60,9,26.9,23.7,83.0,101325,0,0,0,0,0,0,0,0,0,0,0,9.5,0,0,9999,77777,9,999999999,0,0,0,99,0.2,0,0
2023,8,18,4,60,9,28.0,23.4,76.0,101325,0,0,0,0,0,0,0,0,0,0,0,12.2,0,0,9999,77777,9,999999999,0,0,0,99,0.2,0,0
2023,8,18,5,60,9,28.5,23.5,74.0,101325,0,0,0,0,0,0,0,0,0,0,0,14.0,0,0,9999,77777,9,999999999,0,0,0,99,0.2,0,0
2023,8,18,6,60,9,28.9,23.5,73.0,101325,0,0,0,0,0,0,0,0,0,0,0,14.6,0,0,9999,77777,9,999999999,0,0,0,99,0.2,0,0
2023,8,18,7,60,9,28.8,23.7,74.0,101325,0,0,0,0,0,0,0,0,0,0,0,16.8,0,0,9999,77777,9,999999999,0,0,0,99,0.2,0,0
2023,8,18,8,60,9,28.0,23.4,76.0,101325,0,0,0,0,0,0,0,0,0,0,0,18.9,0,0,9999,77777,9,999999999,0,0,0,99,0.2,0,0
2023,8,18,9,60,9,27.9,24.1,80.0,101325,0,0,0,0,0,0,0,0,0,0,0,17.7,0,0,9999,77777,9,999999999,0,0,0,99,0.2,0,0
2023,8,18,10,60,9,28.6,24.1,77.0,101325,0,0,0,0,0,0,0,0,0,0,0,17.3,0,0,9999,77777,9,999999999,0,0,0,99,0.2,0,0
2023,8,18,11,60,9,28.1,23.9,78.0,101325,0,0,0,0,0,0,0,0,0,0,0,17.5,0,0,9999,77777,9,999999999,0,0,0,99,0.2,0,0
2023,8,18,12,60,9,27.8,23.6,78.0,101325,0,0,0,0,0,0,0,0,0,0,0,17.6,0,0,9999,77777,9,999999999,0,0,0,99,0.2,0,0
2023,8,18,13,60,9,27.4,23.8,81.0,101325,0,0,0,0,0,0,0,0,0,0,0,17.4,0,0,9999,77777,9,999999999,0,0,0,99,0.2,0,0
2023,8,18,14,60,9,27.1,23.8,82.0,101325,0,0,0,0,0,0,0,0,0,0,0,15.6,0,0,9999,77777,9,999999999,0,0,0,99,0.2,0,0
2023,8,18,15,60,9,26.8,23.6,82.0,101325,0,0,0,0,0,0,0,0,0,0,0,13.1,0,0,9999,77777,9,999999999,0,0,0,99,0.2,0,0
2023,8,18,16,60,9,26.8,23.9,84.0,101325,0,0,0,0,0,0,0,0,0,0,0,12.7,0,0,9999,77777,9,999999999,0,0,0,99,0.2,0,0
2023,8,18,17,60,9,26.7,23.8,84.0,101325,0,0,0,0,0,0,0,0,0,0,0,13.1,0,0,9999,77777,9,999999999,0,0,0,99,0.2,0,0
2023,8,18,18,60,9,26.8,23.7,83.0,101325,0,0,0,0,0,0,0,0,0,0,0,13.8,0,0,9999,77777,9,999999999,0,0,0,99,0.2,0,0
2023,8,18,19,60,9,26.6,23.8,84.0,101325,0,0,0,0,0,0,0,0,0,0,0,13.4,0,0,9999,77777,9,999999999,0,0,0,99,0.2,0,0
2023,8,18,20,60,9,26.1,23.9,88.0,101325,0,0,0,0,0,0,0,0,0,0,0,13.6,0,0,9999,77777,9,999999999,0,0,0,99,0.2,0,0
2023,8,18,21,60,9,25.7,23.7,89.0,101325,0,0,0,0,0,0,0,0,0,0,0,13.2,0,0,9999,77777,9,999999999,0,0,0,99,0.2,0,0
2023,8,18,22,60,9,25.9,23.6,87.0,101325,0,0,0,0,0,0,0,0,0,0,0,13.7,0,0,9999,77777,9,999999999,0,0,0,99,0.2,0,0
2023,8,18,23,60,9,25.7,23.5,88.0,101325,0,0,0,0,0,0,0,0,0,0,0,13.9,0,0,9999,77777,9,999999999,0,0,0,99,0.2,0,0
2023,8,18,24,60,9,25.6,23.3,87.0,101325,0,0,0,0,0,0,0,0,0,0,0,12.6,0,0,9999,77777,9,999999999,0,0,0,99,0.2,0,0
2023,8,19,1,60,9,26.0,24.0,89.0,101325,0,0,0,0,0,0,0,0,0,0,0,15.8,0,0,9999,77777,9,999999999,0,0,0,99,0.2,0,0
2023,8,19,2,60,9,26.0,23.9,88.0,101325,0,0,0,0,0,0,0,0,0,0,0,16.0,0,0,9999,77777,9,999999999,0,0,0,99,0.2,0,0
2023,8,19,3,60,9,26.5,24.4,88.0,101325,0,0,0,0,0,0,0,0,0,0,0,15.8,0,0,9999,77777,9,999999999,0,0,0,99,0.2,0,0
2023,8,19,4,60,9,27.7,24.2,81.0,101325,0,0,0,0,0,0,0,0,0,0,0,15.5,0,0,9999,77777,9,999999999,0,0,0,99,0.2,0,0
2023,8,19,5,60,9,28.2,24.0,78.0,101325,0,0,0,0,0,0,0,0,0,0,0,16.4,0,0,9999,77777,9,999999999,0,0,0,99,0.2,0,0
2023,8,19,6,60,9,28.0,23.9,78.0,101325,0,0,0,0,0,0,0,0,0,0,0,15.6,0,0,9999,77777,9,999999999,0,0,0,99,0.2,0,0
2023,8,19,7,60,9,28.1,24.0,78.0,101325,0,0,0,0,0,0,0,0,0,0,0,15.9,0,0,9999,77777,9,999999999,0,0,0,99,0.2,0,0
2023,8,19,8,60,9,27.6,23.9,80.0,101325,0,0,0,0,0,0,0,0,0,0,0,18.0,0,0,9999,77777,9,999999999,0,0,0,99,0.2,0,0
2023,8,19,9,60,9,28.7,24.5,78.0,101325,0,0,0,0,0,0,0,0,0,0,0,16.9,0,0,9999,77777,9,999999999,0,0,0,99,0.2,0,0
2023,8,19,10,60,9,28.4,24.3,78.0,101325,0,0,0,0,0,0,0,0,0,0,0,19.5,0,0,9999,77777,9,999999999,0,0,0,99,0.2,0,0
2023,8,19,11,60,9,27.9,23.8,78.0,101325,0,0,0,0,0,0,0,0,0,0,0,18.3,0,0,9999,77777,9,999999999,0,0,0,99,0.2,0,0
2023,8,19,12,60,9,27.6,23.6,79.0,101325,0,0,0,0,0,0,0,0,0,0,0,18.1,0,0,9999,77777,9,999999999,0,0,0,99,0.2,0,0
2023,8,19,13,60,9,26.2,23.6,86.0,101325,0,0,0,0,0,0,0,0,0,0,0,14.6,0,0,9999,77777,9,999999999,0,0,0,99,0.2,0,0
2023,8,19,14,60,9,26.7,24.2,86.0,101325,0,0,0,0,0,0,0,0,0,0,0,10.4,0,0,9999,77777,9,999999999,0,0,0,99,0.2,0,0
2023,8,19,15,60,9,26.6,24.3,87.0,101325,0,0,0,0,0,0,0,0,0,0,0,12.0,0,0,9999,77777,9,999999999,0,0,0,99,0.2,0,0
2023,8,19,16,60,9,26.5,24.2,87.0,101325,0,0,0,0,0,0,0,0,0,0,0,11.5,0,0,9999,77777,9,999999999,0,0,0,99,0.2,0,0
2023,8,19,17,60,9,26.4,24.2,87.0,101325,0,0,0,0,0,0,0,0,0,0,0,14.1,0,0,9999,77777,9,999999999,0,0,0,99,0.2,0,0
2023,8,19,18,60,9,26.2,23.9,87.0,101325,0,0,0,0,0,0,0,0,0,0,0,15.6,0,0,9999,77777,9,999999999,0,0,0,99,0.2,0,0
2023,8,19,19,60,9,25.9,23.6,87.0,101325,0,0,0,0,0,0,0,0,0,0,0,14.7,0,0,9999,77777,9,999999999,0,0,0,99,0.2,0,0
2023,8,19,20,60,9,26.1,23.9,88.0,101325,0,0,0,0,0,0,0,0,0,0,0,12.9,0,0,9999,77777,9,999999999,0,0,0,99,0.2,0,0
2023,8,19,21,60,9,25.6,23.7,89.0,101325,0,0,0,0,0,0,0,0,0,0,0,12.1,0,0,9999,77777,9,999999999,0,0,0,99,0.2,0,0
2023,8,19,22,60,9,26.1,23.4,85.0,101325,0,0,0,0,0,0,0,0,0,0,0,15.0,0,0,9999,77777,9,999999999,0,0,0,99,0.2,0,0
2023,8,19,23,60,9,25.5,23.6,89.0,101325,0,0,0,0,0,0,0,0,0,0,0,12.8,0,0,9999,77777,9,999999999,0,0,0,99,0.2,0,0
2023,8,19,24,60,9,25.8,23.5,87.0,101325,0,0,0,0,0,0,0,0,0,0,0,17.1,0,0,9999,77777,9,999999999,0,0,0,99,0.2,0,0
2023,8,20,1,60,9,26.1,24.0,88.0,101325,0,0,0,0,0,0,0,0,0,0,0,15.4,0,0,9999,77777,9,999999999,0,0,0,99,0.2,0,0
2023,8,20,2,60,9,25.4,23.4,89.0,101325,0,0,0,0,0,0,0,0,0,0,0,15.1,0,0,9999,77777,9,999999999,0,0,0,99,0.2,0,0
2023,8,20,3,60,9,25.9,24.1,90.0,101325,0,0,0,0,0,0,0,0,0,0,0,14.3,0,0,9999,77777,9,999999999,0,0,0,99,0.2,0,0
2023,8,20,4,60,9,26.6,24.4,88.0,101325,0,0,0,0,0,0,0,0,0,0,0,13.8,0,0,9999,77777,9,999999999,0,0,0,99,0.2,0,0
2023,8,20,5,60,9,25.0,23.6,92.0,101325,0,0,0,0,0,0,0,0,0,0,0,9.3,0,0,9999,77777,9,999999999,0,0,0,99,0.2,0,0
2023,8,20,6,60,9,26.4,23.8,86.0,101325,0,0,0,0,0,0,0,0,0,0,0,13.8,0,0,9999,77777,9,999999999,0,0,0,99,0.2,0,0
2023,8,20,7,60,9,26.9,23.7,83.0,101325,0,0,0,0,0,0,0,0,0,0,0,9.0,0,0,9999,77777,9,999999999,0,0,0,99,0.2,0,0
2023,8,20,8,60,9,26.3,23.6,85.0,101325,0,0,0,0,0,0,0,0,0,0,0,6.8,0,0,9999,77777,9,999999999,0,0,0,99,0.2,0,0
2023,8,20,9,60,9,26.8,24.0,85.0,101325,0,0,0,0,0,0,0,0,0,0,0,12.1,0,0,9999,77777,9,999999999,0,0,0,99,0.2,0,0
2023,8,20,10,60,9,27.2,23.9,82.0,101325,0,0,0,0,0,0,0,0,0,0,0,12.3,0,0,9999,77777,9,999999999,0,0,0,99,0.2,0,0
2023,8,20,11,60,9,27.5,24.3,83.0,101325,0,0,0,0,0,0,0,0,0,0,0,12.5,0,0,9999,77777,9,999999999,0,0,0,99,0.2,0,0
2023,8,20,12,60,9,27.9,24.4,81.0,101325,0,0,0,0,0,0,0,0,0,0,0,13.3,0,0,9999,77777,9,999999999,0,0,0,99,0.2,0,0
2023,8,20,13,60,9,26.9,24.4,86.0,101325,0,0,0,0,0,0,0,0,0,0,0,9.2,0,0,9999,77777,9,999999999,0,0,0,99,0.2,0,0
2023,8,20,14,60,9,26.0,23.9,88.0,101325,0,0,0,0,0,0,0,0,0,0,0,8.7,0,0,9999,77777,9,999999999,0,0,0,99,0.2,0,0
2023,8,20,15,60,9,25.5,23.9,91.0,101325,0,0,0,0,0,0,0,0,0,0,0,7.7,0,0,9999,77777,9,999999999,0,0,0,99,0.2,0,0
2023,8,20,16,60,9,25.5,24.3,93.0,101325,0,0,0,0,0,0,0,0,0,0,0,4.7,0,0,9999,77777,9,999999999,0,0,0,99,0.2,0,0
2023,8,20,17,60,9,25.6,24.4,93.0,101325,0,0,0,0,0,0,0,0,0,0,0,7.8,0,0,9999,77777,9,999999999,0,0,0,99,0.2,0,0
2023,8,20,18,60,9,25.6,24.3,92.0,101325,0,0,0,0,0,0,0,0,0,0,0,7.7,0,0,9999,77777,9,999999999,0,0,0,99,0.2,0,0
2023,8,20,19,60,9,25.5,24.3,93.0,101325,0,0,0,0,0,0,0,0,0,0,0,6.5,0,0,9999,77777,9,999999999,0,0,0,99,0.2,0,0
2023,8,20,20,60,9,25.3,23.9,92.0,101325,0,0,0,0,0,0,0,0,0,0,0,7.2,0,0,9999,77777,9,999999999,0,0,0,99,0.2,0,0
2023,8,20,21,60,9,25.3,23.9,92.0,101325,0,0,0,0,0,0,0,0,0,0,0,7.2,0,0,9999,77777,9,999999999,0,0,0,99,0.2,0,0
2023,8,20,22,60,9,24.9,23.6,92.0,101325,0,0,0,0,0,0,0,0,0,0,0,9.3,0,0,9999,77777,9,999999999,0,0,0,99,0.2,0,0
2023,8,20,23,60,9,24.8,23.8,94.0,101325,0,0,0,0,0,0,0,0,0,0,0,7.2,0,0,9999,77777,9,999999999,0,0,0,99,0.2,0,0
2023,8,20,24,60,9,24.6,23.8,95.0,101325,0,0,0,0,0,0,0,0,0,0,0,8.4,0,0,9999,77777,9,999999999,0,0,0,99,0.2,0,0
2023,8,21,1,60,9,25.5,23.9,91.0,101325,0,0,0,0,0,0,0,0,0,0,0,9.3,0,0,9999,77777,9,999999999,0,0,0,99,0.2,0,0
2023,8,21,2,60,9,25.2,24.0,93.0,101325,0,0,0,0,0,0,0,0,0,0,0,4.8,0,0,9999,77777,9,999999999,0,0,0,99,0.2,0,0
2023,8,21,3,60,9,26.3,23.9,87.0,101325,0,0,0,0,0,0,0,0,0,0,0,8.7,0,0,9999,77777,9,999999999,0,0,0,99,0.2,0,0
2023,8,21,4,60,9,26.1,23.6,86.0,101325,0,0,0,0,0,0,0,0,0,0,0,9.9,0,0,9999,77777,9,999999999,0,0,0,99,0.2,0,0
2023,8,21,5,60,9,26.7,24.1,86.0,101325,0,0,0,0,0,0,0,0,0,0,0,9.2,0,0,9999,77777,9,999999999,0,0,0,99,0.2,0,0
2023,8,21,6,60,9,27.3,24.1,83.0,101325,0,0,0,0,0,0,0,0,0,0,0,13.0,0,0,9999,77777,9,999999999,0,0,0,99,0.2,0,0
2023,8,21,7,60,9,26.8,23.6,83.0,101325,0,0,0,0,0,0,0,0,0,0,0,15.6,0,0,9999,77777,9,999999999,0,0,0,99,0.2,0,0
2023,8,21,8,60,9,27.6,24.1,81.0,101325,0,0,0,0,0,0,0,0,0,0,0,14.2,0,0,9999,77777,9,999999999,0,0,0,99,0.2,0,0
2023,8,21,9,60,9,28.4,24.5,79.0,101325,0,0,0,0,0,0,0,0,0,0,0,14.7,0,0,9999,77777,9,999999999,0,0,0,99,0.2,0,0
2023,8,21,10,60,9,28.6,24.5,78.0,101325,0,0,0,0,0,0,0,0,0,0,0,13.8,0,0,9999,77777,9,999999999,0,0,0,99,0.2,0,0
2023,8,21,11,60,9,28.7,24.3,77.0,101325,0,0,0,0,0,0,0,0,0,0,0,16.2,0,0,9999,77777,9,999999999,0,0,0,99,0.2,0,0
2023,8,21,12,60,9,28.4,24.0,77.0,101325,0,0,0,0,0,0,0,0,0,0,0,16.3,0,0,9999,77777,9,999999999,0,0,0,99,0.2,0,0
2023,8,21,13,60,9,27.5,23.7,80.0,101325,0,0,0,0,0,0,0,0,0,0,0,15.1,0,0,9999,77777,9,999999999,0,0,0,99,0.2,0,0
2023,8,21,14,60,9,27.1,23.7,81.0,101325,0,0,0,0,0,0,0,0,0,0,0,13.6,0,0,9999,77777,9,999999999,0,0,0,99,0.2,0,0
2023,8,21,15,60,9,26.6,23.5,83.0,101325,0,0,0,0,0,0,0,0,0,0,0,10.9,0,0,9999,77777,9,999999999,0,0,0,99,0.2,0,0
2023,8,21,16,60,9,26.4,23.6,85.0,101325,0,0,0,0,0,0,0,0,0,0,0,7.4,0,0,9999,77777,9,999999999,0,0,0,99,0.2,0,0
2023,8,21,17,60,9,26.1,23.6,86.0,101325,0,0,0,0,0,0,0,0,0,0,0,5.2,0,0,9999,77777,9,999999999,0,0,0,99,0.2,0,0
2023,8,21,18,60,9,25.9,23.7,88.0,101325,0,0,0,0,0,0,0,0,0,0,0,5.7,0,0,9999,77777,9,999999999,0,0,0,99,0.2,0,0
2023,8,21,19,60,9,25.7,23.7,89.0,101325,0,0,0,0,0,0,0,0,0,0,0,5.4,0,0,9999,77777,9,999999999,0,0,0,99,0.2,0,0
2023,8,21,20,60,9,25.6,23.7,90.0,101325,0,0,0,0,0,0,0,0,0,0,0,5.4,0,0,9999,77777,9,999999999,0,0,0,99,0.2,0,0
2023,8,21,21,60,9,25.5,23.6,89.0,101325,0,0,0,0,0,0,0,0,0,0,0,6.4,0,0,9999,77777,9,999999999,0,0,0,99,0.2,0,0
2023,8,21,22,60,9,25.4,23.6,90.0,101325,0,0,0,0,0,0,0,0,0,0,0,5.2,0,0,9999,77777,9,999999999,0,0,0,99,0.2,0,0
2023,8,21,23,60,9,25.1,23.6,91.0,101325,0,0,0,0,0,0,0,0,0,0,0,5.4,0,0,9999,77777,9,999999999,0,0,0,99,0.2,0,0
2023,8,21,24,60,9,25.0,23.6,92.0,101325,0,0,0,0,0,0,0,0,0,0,0,5.6,0,0,9999,77777,9,999999999,0,0,0,99,0.2,0,0
2023,8,22,1,60,9,25.4,23.9,92.0,101325,0,0,0,0,0,0,0,0,0,0,0,5.6,0,0,9999,77777,9,999999999,0,0,0,99,0.2,0,0
2023,8,22,2,60,9,25.6,23.9,90.0,101325,0,0,0,0,0,0,0,0,0,0,0,7.7,0,0,9999,77777,9,999999999,0,0,0,99,0.2,0,0
2023,8,22,3,60,9,25.7,24.0,91.0,101325,0,0,0,0,0,0,0,0,0,0,0,9.3,0,0,9999,77777,9,999999999,0,0,0,99,0.2,0,0
2023,8,22,4,60,9,26.6,24.1,86.0,101325,0,0,0,0,0,0,0,0,0,0,0,8.0,0,0,9999,77777,9,999999999,0,0,0,99,0.2,0,0
2023,8,22,5,60,9,27.1,24.3,85.0,101325,0,0,0,0,0,0,0,0,0,0,0,8.7,0,0,9999,77777,9,999999999,0,0,0,99,0.2,0,0
2023,8,22,6,60,9,26.6,24.4,88.0,101325,0,0,0,0,0,0,0,0,0,0,0,12.0,0,0,9999,77777,9,999999999,0,0,0,99,0.2,0,0
2023,8,22,7,60,9,27.2,24.5,85.0,101325,0,0,0,0,0,0,0,0,0,0,0,11.9,0,0,9999,77777,9,999999999,0,0,0,99,0.2,0,0
2023,8,22,8,60,9,27.9,24.4,81.0,101325,0,0,0,0,0,0,0,0,0,0,0,12.6,0,0,9999,77777,9,999999999,0,0,0,99,0.2,0,0
2023,8,22,9,60,9,28.7,24.4,77.0,101325,0,0,0,0,0,0,0,0,0,0,0,16.2,0,0,9999,77777,9,999999999,0,0,0,99,0.2,0,0
2023,8,22,10,60,9,27.8,23.6,78.0,101325,0,0,0,0,0,0,0,0,0,0,0,18.8,0,0,9999,77777,9,999999999,0,0,0,99,0.2,0,0
2023,8,22,11,60,9,27.7,23.9,80.0,101325,0,0,0,0,0,0,0,0,0,0,0,18.8,0,0,9999,77777,9,999999999,0,0,0,99,0.2,0,0
2023,8,22,12,60,9,27.5,24.5,84.0,101325,0,0,0,0,0,0,0,0,0,0,0,16.2,0,0,9999,77777,9,999999999,0,0,0,99,0.2,0,0
2023,8,22,13,60,9,26.7,23.4,82.0,101325,0,0,0,0,0,0,0,0,0,0,0,17.6,0,0,9999,77777,9,999999999,0,0,0,99,0.2,0,0
2023,8,22,14,60,9,26.9,24.4,86.0,101325,0,0,0,0,0,0,0,0,0,0,0,13.5,0,0,9999,77777,9,999999999,0,0,0,99,0.2,0,0
2023,8,22,15,60,9,26.5,24.1,87.0,101325,0,0,0,0,0,0,0,0,0,0,0,11.6,0,0,9999,77777,9,999999999,0,0,0,99,0.2,0,0
2023,8,22,16,60,9,26.4,23.9,86.0,101325,0,0,0,0,0,0,0,0,0,0,0,9.4,0,0,9999,77777,9,999999999,0,0,0,99,0.2,0,0
2023,8,22,17,60,9,26.0,23.8,88.0,101325,0,0,0,0,0,0,0,0,0,0,0,5.4,0,0,9999,77777,9,999999999,0,0,0,99,0.2,0,0
2023,8,22,18,60,9,26.0,23.8,88.0,101325,0,0,0,0,0,0,0,0,0,0,0,5.9,0,0,9999,77777,9,999999999,0,0,0,99,0.2,0,0
2023,8,22,19,60,9,26.0,23.8,87.0,101325,0,0,0,0,0,0,0,0,0,0,0,7.4,0,0,9999,77777,9,999999999,0,0,0,99,0.2,0,0
2023,8,22,20,60,9,25.8,23.7,88.0,101325,0,0,0,0,0,0,0,0,0,0,0,8.3,0,0,9999,77777,9,999999999,0,0,0,99,0.2,0,0
2023,8,22,21,60,9,25.6,23.8,90.0,101325,0,0,0,0,0,0,0,0,0,0,0,8.8,0,0,9999,77777,9,999999999,0,0,0,99,0.2,0,0
2023,8,22,22,60,9,25.5,23.8,90.0,101325,0,0,0,0,0,0,0,0,0,0,0,8.8,0,0,9999,77777,9,999999999,0,0,0,99,0.2,0,0
2023,8,22,23,60,9,25.5,23.6,90.0,101325,0,0,0,0,0,0,0,0,0,0,0,7.5,0,0,9999,77777,9,999999999,0,0,0,99,0.2,0,0
2023,8,22,24,60,9,25.3,23.7,91.0,101325,0,0,0,0,0,0,0,0,0,0,0,9.0,0,0,9999,77777,9,999999999,0,0,0,99,0.2,0,0
2023,8,23,1,60,9,25.2,24.0,93.0,101325,0,0,0,0,0,0,0,0,0,0,0,6.4,0,0,9999,77777,9,999999999,0,0,0,99,0.2,0,0
2023,8,23,2,60,9,25.8,24.3,91.0,101325,0,0,0,0,0,0,0,0,0,0,0,4.4,0,0,9999,77777,9,999999999,0,0,0,99,0.2,0,0
2023,8,23,3,60,9,26.7,24.7,89.0,101325,0,0,0,0,0,0,0,0,0,0,0,8.1,0,0,9999,77777,9,999999999,0,0,0,99,0.2,0,0
2023,8,23,4,60,9,27.6,24.2,82.0,101325,0,0,0,0,0,0,0,0,0,0,0,12.0,0,0,9999,77777,9,999999999,0,0,0,99,0.2,0,0
2023,8,23,5,60,9,28.2,23.9,77.0,101325,0,0,0,0,0,0,0,0,0,0,0,14.2,0,0,9999,77777,9,999999999,0,0,0,99,0.2,0,0
2023,8,23,6,60,9,28.7,24.0,76.0,101325,0,0,0,0,0,0,0,0,0,0,0,17.2,0,0,9999,77777,9,999999999,0,0,0,99,0.2,0,0
2023,8,23,7,60,9,28.8,24.5,78.0,101325,0,0,0,0,0,0,0,0,0,0,0,17.6,0,0,9999,77777,9,999999999,0,0,0,99,0.2,0,0
2023,8,23,8,60,9,29.3,24.6,76.0,101325,0,0,0,0,0,0,0,0,0,0,0,17.5,0,0,9999,77777,9,999999999,0,0,0,99,0.2,0,0
2023,8,23,9,60,9,29.4,24.4,75.0,101325,0,0,0,0,0,0,0,0,0,0,0,19.6,0,0,9999,77777,9,999999999,0,0,0,99,0.2,0,0
2023,8,23,10,60,9,29.2,24.2,74.0,101325,0,0,0,0,0,0,0,0,0,0,0,20.5,0,0,9999,77777,9,999999999,0,0,0,99,0.2,0,0
2023,8,23,11,60,9,28.9,24.1,76.0,101325,0,0,0,0,0,0,0,0,0,0,0,21.1,0,0,9999,77777,9,999999999,0,0,0,99,0.2,0,0
2023,8,23,12,60,9,28.5,23.8,76.0,101325,0,0,0,0,0,0,0,0,0,0,0,20.7,0,0,9999,77777,9,999999999,0,0,0,99,0.2,0,0
2023,8,23,13,60,9,27.9,23.3,76.0,101325,0,0,0,0,0,0,0,0,0,0,0,17.1,0,0,9999,77777,9,999999999,0,0,0,99,0.2,0,0
2023,8,23,14,60,9,27.3,23.4,79.0,101325,0,0,0,0,0,0,0,0,0,0,0,14.2,0,0,9999,77777,9,999999999,0,0,0,99,0.2,0,0
2023,8,23,15,60,9,26.7,23.1,81.0,101325,0,0,0,0,0,0,0,0,0,0,0,14.8,0,0,9999,77777,9,999999999,0,0,0,99,0.2,0,0
2023,8,23,16,60,9,26.8,23.1,80.0,101325,0,0,0,0,0,0,0,0,0,0,0,13.6,0,0,9999,77777,9,999999999,0,0,0,99,0.2,0,0
2023,8,23,17,60,9,26.7,23.1,81.0,101325,0,0,0,0,0,0,0,0,0,0,0,11.1,0,0,9999,77777,9,999999999,0,0,0,99,0.2,0,0
2023,8,23,18,60,9,26.6,23.3,82.0,101325,0,0,0,0,0,0,0,0,0,0,0,13.8,0,0,9999,77777,9,999999999,0,0,0,99,0.2,0,0
2023,8,23,19,60,9,26.7,23.2,81.0,101325,0,0,0,0,0,0,0,0,0,0,0,14.5,0,0,9999,77777,9,999999999,0,0,0,99,0.2,0,0
2023,8,23,20,60,9,26.5,23.3,83.0,101325,0,0,0,0,0,0,0,0,0,0,0,13.8,0,0,9999,77777,9,999999999,0,0,0,99,0.2,0,0
2023,8,23,21,60,9,25.8,23.3,86.0,101325,0,0,0,0,0,0,0,0,0,0,0,13.5,0,0,9999,77777,9,999999999,0,0,0,99,0.2,0,0
2023,8,23,22,60,9,26.0,23.3,85.0,101325,0,0,0,0,0,0,0,0,0,0,0,12.2,0,0,9999,77777,9,999999999,0,0,0,99,0.2,0,0
2023,8,23,23,60,9,26.2,23.7,86.0,101325,0,0,0,0,0,0,0,0,0,0,0,11.7,0,0,9999,77777,9,999999999,0,0,0,99,0.2,0,0
2023,8,23,24,60,9,25.6,23.5,88.0,101325,0,0,0,0,0,0,0,0,0,0,0,12.0,0,0,9999,77777,9,999999999,0,0,0,99,0.2,0,0
2023,8,24,1,60,9,26.0,23.8,87.0,101325,0,0,0,0,0,0,0,0,0,0,0,12.3,0,0,9999,77777,9,999999999,0,0,0,99,0.2,0,0
2023,8,24,2,60,9,26.3,24.1,88.0,101325,0,0,0,0,0,0,0,0,0,0,0,12.1,0,0,9999,77777,9,999999999,0,0,0,99,0.2,0,0
2023,8,24,3,60,9,26.3,24.2,88.0,101325,0,0,0,0,0,0,0,0,0,0,0,14.6,0,0,9999,77777,9,999999999,0,0,0,99,0.2,0,0
2023,8,24,4,60,9,26.9,24.2,85.0,101325,0,0,0,0,0,0,0,0,0,0,0,12.7,0,0,9999,77777,9,999999999,0,0,0,99,0.2,0,0
2023,8,24,5,60,9,27.1,23.4,80.0,101325,0,0,0,0,0,0,0,0,0,0,0,16.0,0,0,9999,77777,9,999999999,0,0,0,99,0.2,0,0
2023,8,24,6,60,9,27.1,24.1,83.0,101325,0,0,0,0,0,0,0,0,0,0,0,16.1,0,0,9999,77777,9,999999999,0,0,0,99,0.2,0,0
2023,8,24,7,60,9,27.7,24.2,82.0,101325,0,0,0,0,0,0,0,0,0,0,0,18.0,0,0,9999,77777,9,999999999,0,0,0,99,0.2,0,0
2023,8,24,8,60,9,27.8,24.3,82.0,101325,0,0,0,0,0,0,0,0,0,0,0,16.9,0,0,9999,77777,9,999999999,0,0,0,99,0.2,0,0
2023,8,24,9,60,9,28.8,24.7,79.0,101325,0,0,0,0,0,0,0,0,0,0,0,20.4,0,0,9999,77777,9,999999999,0,0,0,99,0.2,0,0
2023,8,24,10,60,9,27.1,23.6,81.0,101325,0,0,0,0,0,0,0,0,0,0,0,21.2,0,0,9999,77777,9,999999999,0,0,0,99,0.2,0,0
2023,8,24,11,60,9,27.7,24.3,82.0,101325,0,0,0,0,0,0,0,0,0,0,0,17.0,0,0,9999,77777,9,999999999,0,0,0,99,0.2,0,0
2023,8,24,12,60,9,26.8,23.8,83.0,101325,0,0,0,0,0,0,0,0,0,0,0,19.2,0,0,9999,77777,9,999999999,0,0,0,99,0.2,0,0
2023,8,24,13,60,9,26.7,23.8,84.0,101325,0,0,0,0,0,0,0,0,0,0,0,17.9,0,0,9999,77777,9,999999999,0,0,0,99,0.2,0,0
2023,8,24,14,60,9,26.6,23.8,85.0,101325,0,0,0,0,0,0,0,0,0,0,0,15.9,0,0,9999,77777,9,999999999,0,0,0,99,0.2,0,0
2023,8,24,15,60,9,26.6,24.0,85.0,101325,0,0,0,0,0,0,0,0,0,0,0,12.4,0,0,9999,77777,9,999999999,0,0,0,99,0.2,0,0
2023,8,24,16,60,9,26.0,23.8,88.0,101325,0,0,0,0,0,0,0,0,0,0,0,11.6,0,0,9999,77777,9,999999999,0,0,0,99,0.2,0,0
2023,8,24,17,60,9,25.8,24.1,90.0,101325,0,0,0,0,0,0,0,0,0,0,0,10.7,0,0,9999,77777,9,999999999,0,0,0,99,0.2,0,0
2023,8,24,18,60,9,26.0,24.2,90.0,101325,0,0,0,0,0,0,0,0,0,0,0,10.4,0,0,9999,77777,9,999999999,0,0,0,99,0.2,0,0
2023,8,24,19,60,9,25.7,24.0,90.0,101325,0,0,0,0,0,0,0,0,0,0,0,11.5,0,0,9999,77777,9,999999999,0,0,0,99,0.2,0,0
2023,8,24,20,60,9,25.5,23.9,91.0,101325,0,0,0,0,0,0,0,0,0,0,0,11.7,0,0,9999,77777,9,999999999,0,0,0,99,0.2,0,0
2023,8,24,21,60,9,25.2,23.6,91.0,101325,0,0,0,0,0,0,0,0,0,0,0,13.4,0,0,9999,77777,9,999999999,0,0,0,99,0.2,0,0
2023,8,24,22,60,9,25.6,23.7,90.0,101325,0,0,0,0,0,0,0,0,0,0,0,12.4,0,0,9999,77777,9,999999999,0,0,0,99,0.2,0,0
2023,8,24,23,60,9,25.2,23.9,93.0,101325,0,0,0,0,0,0,0,0,0,0,0,14.5,0,0,9999,77777,9,999999999,0,0,0,99,0.2,0,0
2023,8,24,24,60,9,24.9,23.6,92.0,101325,0,0,0,0,0,0,0,0,0,0,0,13.2,0,0,9999,77777,9,999999999,0,0,0,99,0.2,0,0
2023,8,25,1,60,9,25.6,24.2,92.0,101325,0,0,0,0,0,0,0,0,0,0,0,12.5,0,0,9999,77777,9,999999999,0,0,0,99,0.2,0,0
2023,8,25,2,60,9,25.6,24.0,91.0,101325,0,0,0,0,0,0,0,0,0,0,0,15.6,0,0,9999,77777,9,999999999,0,0,0,99,0.2,0,0
2023,8,25,3,60,9,26.3,24.5,90.0,101325,0,0,0,0,0,0,0,0,0,0,0,12.4,0,0,9999,77777,9,999999999,0,0,0,99,0.2,0,0
2023,8,25,4,60,9,26.8,24.3,86.0,101325,0,0,0,0,0,0,0,0,0,0,0,14.7,0,0,9999,77777,9,999999999,0,0,0,99,0.2,0,0
2023,8,25,5,60,9,27.5,24.1,82.0,101325,0,0,0,0,0,0,0,0,0,0,0,18.2,0,0,9999,77777,9,999999999,0,0,0,99,0.2,0,0
2023,8,25,6,60,9,27.3,24.7,85.0,101325,0,0,0,0,0,0,0,0,0,0,0,16.6,0,0,9999,77777,9,999999999,0,0,0,99,0.2,0,0
2023,8,25,7,60,9,28.1,24.6,81.0,101325,0,0,0,0,0,0,0,0,0,0,0,18.5,0,0,9999,77777,9,999999999,0,0,0,99,0.2,0,0
2023,8,25,8,60,9,28.5,24.7,80.0,101325,0,0,0,0,0,0,0,0,0,0,0,19.1,0,0,9999,77777,9,999999999,0,0,0,99,0.2,0,0
2023,8,25,9,60,9,28.0,24.6,82.0,101325,0,0,0,0,0,0,0,0,0,0,0,19.5,0,0,9999,77777,9,999999999,0,0,0,99,0.2,0,0
2023,8,25,10,60,9,27.9,24.5,82.0,101325,0,0,0,0,0,0,0,0,0,0,0,17.8,0,0,9999,77777,9,999999999,0,0,0,99,0.2,0,0
2023,8,25,11,60,9,28.3,24.4,79.0,101325,0,0,0,0,0,0,0,0,0,0,0,18.9,0,0,9999,77777,9,999999999,0,0,0,99,0.2,0,0
2023,8,25,12,60,9,27.8,24.3,81.0,101325,0,0,0,0,0,0,0,0,0,0,0,18.7,0,0,9999,77777,9,999999999,0,0,0,99,0.2,0,0
2023,8,25,13,60,9,28.0,24.5,81.0,101325,0,0,0,0,0,0,0,0,0,0,0,15.9,0,0,9999,77777,9,999999999,0,0,0,99,0.2,0,0
2023,8,25,14,60,9,26.7,23.7,84.0,101325,0,0,0,0,0,0,0,0,0,0,0,18.1,0,0,9999,77777,9,999999999,0,0,0,99,0.2,0,0
2023,8,25,15,60,9,26.6,24.1,86.0,101325,0,0,0,0,0,0,0,0,0,0,0,9.4,0,0,9999,77777,9,999999999,0,0,0,99,0.2,0,0
2023,8,25,16,60,9,26.7,24.6,89.0,101325,0,0,0,0,0,0,0,0,0,0,0,8.9,0,0,9999,77777,9,999999999,0,0,0,99,0.2,0,0
2023,8,25,17,60,9,26.3,24.4,90.0,101325,0,0,0,0,0,0,0,0,0,0,0,10.2,0,0,9999,77777,9,999999999,0,0,0,99,0.2,0,0
2023,8,25,18,60,9,26.1,24.0,88.0,101325,0,0,0,0,0,0,0,0,0,0,0,10.6,0,0,9999,77777,9,999999999,0,0,0,99,0.2,0,0
2023,8,25,19,60,9,25.9,24.0,89.0,101325,0,0,0,0,0,0,0,0,0,0,0,11.8,0,0,9999,77777,9,999999999,0,0,0,99,0.2,0,0
2023,8,25,20,60,9,25.3,23.9,92.0,101325,0,0,0,0,0,0,0,0,0,0,0,12.1,0,0,9999,77777,9,999999999,0,0,0,99,0.2,0,0
2023,8,25,21,60,9,25.4,24.0,92.0,101325,0,0,0,0,0,0,0,0,0,0,0,10.2,0,0,9999,77777,9,999999999,0,0,0,99,0.2,0,0
2023,8,25,22,60,9,25.5,24.1,92.0,101325,0,0,0,0,0,0,0,0,0,0,0,12.8,0,0,9999,77777,9,999999999,0,0,0,99,0.2,0,0
2023,8,25,23,60,9,25.3,23.9,92.0,101325,0,0,0,0,0,0,0,0,0,0,0,12.5,0,0,9999,77777,9,999999999,0,0,0,99,0.2,0,0
2023,8,25,24,60,9,24.3,23.5,95.0,101325,0,0,0,0,0,0,0,0,0,0,0,15.9,0,0,9999,77777,9,999999999,0,0,0,99,0.2,0,0
2023,8,26,1,60,9,25.1,23.7,92.0,101325,0,0,0,0,0,0,0,0,0,0,0,13.5,0,0,9999,77777,9,999999999,0,0,0,99,0.2,0,0
2023,8,26,2,60,9,25.1,23.8,93.0,101325,0,0,0,0,0,0,0,0,0,0,0,13.2,0,0,9999,77777,9,999999999,0,0,0,99,0.2,0,0
2023,8,26,3,60,9,26.0,24.7,92.0,101325,0,0,0,0,0,0,0,0,0,0,0,13.8,0,0,9999,77777,9,999999999,0,0,0,99,0.2,0,0
2023,8,26,4,60,9,26.6,24.3,87.0,101325,0,0,0,0,0,0,0,0,0,0,0,12.9,0,0,9999,77777,9,999999999,0,0,0,99,0.2,0,0
2023,8,26,5,60,9,26.8,24.2,86.0,101325,0,0,0,0,0,0,0,0,0,0,0,14.5,0,0,9999,77777,9,999999999,0,0,0,99,0.2,0,0
2023,8,26,6,60,9,27.5,24.0,81.0,101325,0,0,0,0,0,0,0,0,0,0,0,18.3,0,0,9999,77777,9,999999999,0,0,0,99,0.2,0,0
2023,8,26,7,60,9,27.6,24.5,83.0,101325,0,0,0,0,0,0,0,0,0,0,0,15.9,0,0,9999,77777,9,999999999,0,0,0,99,0.2,0,0
2023,8,26,8,60,9,27.9,24.6,82.0,101325,0,0,0,0,0,0,0,0,0,0,0,18.4,0,0,9999,77777,9,999999999,0,0,0,99,0.2,0,0
2023,8,26,9,60,9,27.4,23.8,81.0,101325,0,0,0,0,0,0,0,0,0,0,0,20.2,0,0,9999,77777,9,999999999,0,0,0,99,0.2,0,0
2023,8,26,10,60,9,27.1,24.0,83.0,101325,0,0,0,0,0,0,0,0,0,0,0,20.2,0,0,9999,77777,9,999999999,0,0,0,99,0.2,0,0
2023,8,26,11,60,9,27.8,24.0,80.0,101325,0,0,0,0,0,0,0,0,0,0,0,18.9,0,0,9999,77777,9,999999999,0,0,0,99,0.2,0,0
2023,8,26,12,60,9,27.3,24.2,83.0,101325,0,0,0,0,0,0,0,0,0,0,0,18.6,0,0,9999,77777,9,999999999,0,0,0,99,0.2,0,0
2023,8,26,13,60,9,26.4,23.5,84.0,101325,0,0,0,0,0,0,0,0,0,0,0,19.3,0,0,9999,77777,9,999999999,0,0,0,99,0.2,0,0
2023,8,26,14,60,9,26.2,24.0,88.0,101325,0,0,0,0,0,0,0,0,0,0,0,12.9,0,0,9999,77777,9,999999999,0,0,0,99,0.2,0,0
2023,8,26,15,60,9,25.1,23.9,93.0,101325,0,0,0,0,0,0,0,0,0,0,0,15.8,0,0,9999,77777,9,999999999,0,0,0,99,0.2,0,0
2023,8,26,16,60,9,25.6,23.8,90.0,101325,0,0,0,0,0,0,0,0,0,0,0,15.8,0,0,9999,77777,9,999999999,0,0,0,99,0.2,0,0
2023,8,26,17,60,9,25.7,23.9,90.0,101325,0,0,0,0,0,0,0,0,0,0,0,11.8,0,0,9999,77777,9,999999999,0,0,0,99,0.2,0,0
2023,8,26,18,60,9,25.1,23.8,93.0,101325,0,0,0,0,0,0,0,0,0,0,0,8.7,0,0,9999,77777,9,999999999,0,0,0,99,0.2,0,0
2023,8,26,19,60,9,25.3,24.0,92.0,101325,0,0,0,0,0,0,0,0,0,0,0,10.5,0,0,9999,77777,9,999999999,0,0,0,99,0.2,0,0
2023,8,26,20,60,9,25.2,24.0,93.0,101325,0,0,0,0,0,0,0,0,0,0,0,10.8,0,0,9999,77777,9,999999999,0,0,0,99,0.2,0,0
2023,8,26,21,60,9,24.6,23.7,95.0,101325,0,0,0,0,0,0,0,0,0,0,0,9.3,0,0,9999,77777,9,999999999,0,0,0,99,0.2,0,0
2023,8,26,22,60,9,24.2,23.5,96.0,101325,0,0,0,0,0,0,0,0,0,0,0,10.9,0,0,9999,77777,9,999999999,0,0,0,99,0.2,0,0
2023,8,26,23,60,9,24.1,23.3,95.0,101325,0,0,0,0,0,0,0,0,0,0,0,5.1,0,0,9999,77777,9,999999999,0,0,0,99,0.2,0,0
2023,8,26,24,60,9,24.6,23.4,93.0,101325,0,0,0,0,0,0,0,0,0,0,0,9.4,0,0,9999,77777,9,999999999,0,0,0,99,0.2,0,0
2023,8,27,1,60,9,24.6,23.1,91.0,101325,0,0,0,0,0,0,0,0,0,0,0,6.9,0,0,9999,77777,9,999999999,0,0,0,99,0.2,0,0
2023,8,27,2,60,9,24.8,23.7,94.0,101325,0,0,0,0,0,0,0,0,0,0,0,9.9,0,0,9999,77777,9,999999999,0,0,0,99,0.2,0,0
2023,8,27,3,60,9,24.9,23.7,93.0,101325,0,0,0,0,0,0,0,0,0,0,0,7.1,0,0,9999,77777,9,999999999,0,0,0,99,0.2,0,0
2023,8,27,4,60,9,25.5,24.0,91.0,101325,0,0,0,0,0,0,0,0,0,0,0,11.0,0,0,9999,77777,9,999999999,0,0,0,99,0.2,0,0
2023,8,27,5,60,9,25.3,23.6,90.0,101325,0,0,0,0,0,0,0,0,0,0,0,12.5,0,0,9999,77777,9,999999999,0,0,0,99,0.2,0,0
2023,8,27,6,60,9,26.2,24.2,89.0,101325,0,0,0,0,0,0,0,0,0,0,0,11.3,0,0,9999,77777,9,999999999,0,0,0,99,0.2,0,0
2023,8,27,7,60,9,27.2,24.3,84.0,101325,0,0,0,0,0,0,0,0,0,0,0,16.0,0,0,9999,77777,9,999999999,0,0,0,99,0.2,0,0
2023,8,27,8,60,9,26.5,23.2,82.0,101325,0,0,0,0,0,0,0,0,0,0,0,14.1,0,0,9999,77777,9,999999999,0,0,0,99,0.2,0,0
2023,8,27,9,60,9,27.8,24.4,82.0,101325,0,0,0,0,0,0,0,0,0,0,0,13.7,0,0,9999,77777,9,999999999,0,0,0,99,0.2,0,0
2023,8,27,10,60,9,27.2,24.1,83.0,101325,0,0,0,0,0,0,0,0,0,0,0,15.8,0,0,9999,77777,9,999999999,0,0,0,99,0.2,0,0
2023,8,27,11,60,9,26.4,23.6,85.0,101325,0,0,0,0,0,0,0,0,0,0,0,16.6,0,0,9999,77777,9,999999999,0,0,0,99,0.2,0,0
2023,8,27,12,60,9,26.9,23.7,83.0,101325,0,0,0,0,0,0,0,0,0,0,0,15.0,0,0,9999,77777,9,999999999,0,0,0,99,0.2,0,0
2023,8,27,13,60,9,26.9,23.4,81.0,101325,0,0,0,0,0,0,0,0,0,0,0,11.0,0,0,9999,77777,9,999999999,0,0,0,99,0.2,0,0
2023,8,27,14,60,9,26.4,23.6,84.0,101325,0,0,0,0,0,0,0,0,0,0,0,8.2,0,0,9999,77777,9,999999999,0,0,0,99,0.2,0,0
2023,8,27,15,60,9,25.6,23.8,90.0,101325,0,0,0,0,0,0,0,0,0,0,0,3.6,0,0,9999,77777,9,999999999,0,0,0,99,0.2,0,0
2023,8,27,16,60,9,25.6,23.8,90.0,101325,0,0,0,0,0,0,0,0,0,0,0,6.6,0,0,9999,77777,9,999999999,0,0,0,99,0.2,0,0
2023,8,27,17,60,9,25.6,23.7,90.0,101325,0,0,0,0,0,0,0,0,0,0,0,7.7,0,0,9999,77777,9,999999999,0,0,0,99,0.2,0,0
2023,8,27,18,60,9,25.5,23.7,90.0,101325,0,0,0,0,0,0,0,0,0,0,0,7.5,0,0,9999,77777,9,999999999,0,0,0,99,0.2,0,0
2023,8,27,19,60,9,24.7,23.2,91.0,101325,0,0,0,0,0,0,0,0,0,0,0,12.0,0,0,9999,77777,9,999999999,0,0,0,99,0.2,0,0
2023,8,27,20,60,9,25.0,23.5,91.0,101325,0,0,0,0,0,0,0,0,0,0,0,9.0,0,0,9999,77777,9,999999999,0,0,0,99,0.2,0,0
2023,8,27,21,60,9,24.8,23.5,92.0,101325,0,0,0,0,0,0,0,0,0,0,0,10.4,0,0,9999,77777,9,999999999,0,0,0,99,0.2,0,0
2023,8,27,22,60,9,24.9,23.2,91.0,101325,0,0,0,0,0,0,0,0,0,0,0,11.1,0,0,9999,77777,9,999999999,0,0,0,99,0.2,0,0
2023,8,27,23,60,9,24.8,23.6,93.0,101325,0,0,0,0,0,0,0,0,0,0,0,12.0,0,0,9999,77777,9,999999999,0,0,0,99,0.2,0,0
2023,8,27,24,60,9,25.0,23.3,90.0,101325,0,0,0,0,0,0,0,0,0,0,0,9.9,0,0,9999,77777,9,999999999,0,0,0,99,0.2,0,0
2023,8,28,1,60,9,24.9,23.5,92.0,101325,0,0,0,0,0,0,0,0,0,0,0,8.1,0,0,9999,77777,9,999999999,0,0,0,99,0.2,0,0
2023,8,28,2,60,9,25.3,24.0,93.0,101325,0,0,0,0,0,0,0,0,0,0,0,6.6,0,0,9999,77777,9,999999999,0,0,0,99,0.2,0,0
2023,8,28,3,60,9,26.0,24.3,90.0,101325,0,0,0,0,0,0,0,0,0,0,0,8.9,0,0,9999,77777,9,999999999,0,0,0,99,0.2,0,0
2023,8,28,4,60,9,26.2,23.9,87.0,101325,0,0,0,0,0,0,0,0,0,0,0,8.5,0,0,9999,77777,9,999999999,0,0,0,99,0.2,0,0
2023,8,28,5,60,9,26.5,24.1,87.0,101325,0,0,0,0,0,0,0,0,0,0,0,11.0,0,0,9999,77777,9,999999999,0,0,0,99,0.2,0,0
2023,8,28,6,60,9,27.5,24.6,84.0,101325,0,0,0,0,0,0,0,0,0,0,0,11.3,0,0,9999,77777,9,999999999,0,0,0,99,0.2,0,0
2023,8,28,7,60,9,27.0,23.8,83.0,101325,0,0,0,0,0,0,0,0,0,0,0,12.2,0,0,9999,77777,9,999999999,0,0,0,99,0.2,0,0
2023,8,28,8,60,9,27.6,24.1,82.0,101325,0,0,0,0,0,0,0,0,0,0,0,14.8,0,0,9999,77777,9,999999999,0,0,0,99,0.2,0,0
2023,8,28,9,60,9,26.7,23.9,84.0,101325,0,0,0,0,0,0,0,0,0,0,0,17.1,0,0,9999,77777,9,999999999,0,0,0,99,0.2,0,0
2023,8,28,10,60,9,25.8,23.3,86.0,101325,0,0,0,0,0,0,0,0,0,0,0,17.0,0,0,9999,77777,9,999999999,0,0,0,99,0.2,0,0
2023,8,28,11,60,9,26.9,23.2,80.0,101325,0,0,0,0,0,0,0,0,0,0,0,13.9,0,0,9999,77777,9,999999999,0,0,0,99,0.2,0,0
2023,8,28,12,60,9,26.2,23.2,83.0,101325,0,0,0,0,0,0,0,0,0,0,0,13.4,0,0,9999,77777,9,999999999,0,0,0,99,0.2,0,0
2023,8,28,13,60,9,26.4,23.6,85.0,101325,0,0,0,0,0,0,0,0,0,0,0,10.3,0,0,9999,77777,9,999999999,0,0,0,99,0.2,0,0
2023,8,28,14,60,9,26.0,23.6,86.0,101325,0,0,0,0,0,0,0,0,0,0,0,8.6,0,0,9999,77777,9,999999999,0,0,0,99,0.2,0,0
2023,8,28,15,60,9,25.6,23.5,88.0,101325,0,0,0,0,0,0,0,0,0,0,0,7.2,0,0,9999,77777,9,999999999,0,0,0,99,0.2,0,0
2023,8,28,16,60,9,25.7,23.7,89.0,101325,0,0,0,0,0,0,0,0,0,0,0,6.4,0,0,9999,77777,9,999999999,0,0,0,99,0.2,0,0
2023,8,28,17,60,9,25.1,23.6,91.0,101325,0,0,0,0,0,0,0,0,0,0,0,9.4,0,0,9999,77777,9,999999999,0,0,0,99,0.2,0,0
2023,8,28,18,60,9,25.2,23.5,90.0,101325,0,0,0,0,0,0,0,0,0,0,0,10.0,0,0,9999,77777,9,999999999,0,0,0,99,0.2,0,0
2023,8,28,19,60,9,25.4,23.5,89.0,101325,0,0,0,0,0,0,0,0,0,0,0,10.8,0,0,9999,77777,9,999999999,0,0,0,99,0.2,0,0
2023,8,28,20,60,9,25.1,23.6,92.0,101325,0,0,0,0,0,0,0,0,0,0,0,11.0,0,0,9999,77777,9,999999999,0,0,0,99,0.2,0,0
2023,8,28,21,60,9,25.0,23.6,92.0,101325,0,0,0,0,0,0,0,0,0,0,0,10.7,0,0,9999,77777,9,999999999,0,0,0,99,0.2,0,0
2023,8,28,22,60,9,24.9,23.6,92.0,101325,0,0,0,0,0,0,0,0,0,0,0,11.1,0,0,9999,77777,9,999999999,0,0,0,99,0.2,0,0
2023,8,28,23,60,9,25.0,23.4,91.0,101325,0,0,0,0,0,0,0,0,0,0,0,9.3,0,0,9999,77777,9,999999999,0,0,0,99,0.2,0,0
2023,8,28,24,60,9,25.0,23.3,90.0,101325,0,0,0,0,0,0,0,0,0,0,0,9.4,0,0,9999,77777,9,999999999,0,0,0,99,0.2,0,0
2023,8,29,1,60,9,25.1,23.6,91.0,101325,0,0,0,0,0,0,0,0,0,0,0,4.6,0,0,9999,77777,9,999999999,0,0,0,99,0.2,0,0
2023,8,29,2,60,9,25.4,24.1,93.0,101325,0,0,0,0,0,0,0,0,0,0,0,2.7,0,0,9999,77777,9,999999999,0,0,0,99,0.2,0,0
2023,8,29,3,60,9,25.8,23.9,89.0,101325,0,0,0,0,0,0,0,0,0,0,0,3.8,0,0,9999,77777,9,999999999,0,0,0,99,0.2,0,0
2023,8,29,4,60,9,26.2,24.3,89.0,101325,0,0,0,0,0,0,0,0,0,0,0,3.2,0,0,9999,77777,9,999999999,0,0,0,99,0.2,0,0
2023,8,29,5,60,9,27.2,24.5,85.0,101325,0,0,0,0,0,0,0,0,0,0,0,3.9,0,0,9999,77777,9,999999999,0,0,0,99,0.2,0,0
2023,8,29,6,60,9,27.7,24.2,81.0,101325,0,0,0,0,0,0,0,0,0,0,0,7.9,0,0,9999,77777,9,999999999,0,0,0,99,0.2,0,0
2023,8,29,7,60,9,28.4,24.5,79.0,101325,0,0,0,0,0,0,0,0,0,0,0,8.4,0,0,9999,77777,9,999999999,0,0,0,99,0.2,0,0
2023,8,29,8,60,9,27.3,24.0,82.0,101325,0,0,0,0,0,0,0,0,0,0,0,7.9,0,0,9999,77777,9,999999999,0,0,0,99,0.2,0,0
2023,8,29,9,60,9,28.3,24.4,79.0,101325,0,0,0,0,0,0,0,0,0,0,0,9.4,0,0,9999,77777,9,999999999,0,0,0,99,0.2,0,0
2023,8,29,10,60,9,28.6,24.4,78.0,101325,0,0,0,0,0,0,0,0,0,0,0,9.6,0,0,9999,77777,9,999999999,0,0,0,99,0.2,0,0
2023,8,29,11,60,9,28.7,24.5,78.0,101325,0,0,0,0,0,0,0,0,0,0,0,8.6,0,0,9999,77777,9,999999999,0,0,0,99,0.2,0,0
2023,8,29,12,60,9,28.3,24.2,78.0,101325,0,0,0,0,0,0,0,0,0,0,0,10.6,0,0,9999,77777,9,999999999,0,0,0,99,0.2,0,0
2023,8,29,13,60,9,28.0,23.7,77.0,101325,0,0,0,0,0,0,0,0,0,0,0,11.0,0,0,9999,77777,9,999999999,0,0,0,99,0.2,0,0
2023,8,29,14,60,9,27.3,23.9,82.0,101325,0,0,0,0,0,0,0,0,0,0,0,7.3,0,0,9999,77777,9,999999999,0,0,0,99,0.2,0,0
2023,8,29,15,60,9,26.7,23.9,85.0,101325,0,0,0,0,0,0,0,0,0,0,0,4.8,0,0,9999,77777,9,999999999,0,0,0,99,0.2,0,0
2023,8,29,16,60,9,26.0,23.9,88.0,101325,0,0,0,0,0,0,0,0,0,0,0,4.9,0,0,9999,77777,9,999999999,0,0,0,99,0.2,0,0
2023,8,29,17,60,9,25.6,23.8,90.0,101325,0,0,0,0,0,0,0,0,0,0,0,6.5,0,0,9999,77777,9,999999999,0,0,0,99,0.2,0,0
2023,8,29,18,60,9,26.1,23.4,85.0,101325,0,0,0,0,0,0,0,0,0,0,0,4.4,0,0,9999,77777,9,999999999,0,0,0,99,0.2,0,0
2023,8,29,19,60,9,25.7,23.3,87.0,101325,0,0,0,0,0,0,0,0,0,0,0,5.0,0,0,9999,77777,9,999999999,0,0,0,99,0.2,0,0
2023,8,29,20,60,9,25.5,23.2,87.0,101325,0,0,0,0,0,0,0,0,0,0,0,4.6,0,0,9999,77777,9,999999999,0,0,0,99,0.2,0,0
2023,8,29,21,60,9,25.2,23.4,90.0,101325,0,0,0,0,0,0,0,0,0,0,0,4.8,0,0,9999,77777,9,999999999,0,0,0,99,0.2,0,0
2023,8,29,22,60,9,24.8,23.3,92.0,101325,0,0,0,0,0,0,0,0,0,0,0,5.8,0,0,9999,77777,9,999999999,0,0,0,99,0.2,0,0
2023,8,29,23,60,9,24.4,23.4,94.0,101325,0,0,0,0,0,0,0,0,0,0,0,5.8,0,0,9999,77777,9,999999999,0,0,0,99,0.2,0,0
2023,8,29,24,60,9,24.4,23.5,95.0,101325,0,0,0,0,0,0,0,0,0,0,0,5.2,0,0,9999,77777,9,999999999,0,0,0,99,0.2,0,0
2023,8,30,1,60,9,24.8,23.7,94.0,101325,0,0,0,0,0,0,0,0,0,0,0,3.3,0,0,9999,77777,9,999999999,0,0,0,99,0.2,0,0
2023,8,30,2,60,9,25.1,24.3,95.0,101325,0,0,0,0,0,0,0,0,0,0,0,3.0,0,0,9999,77777,9,999999999,0,0,0,99,0.2,0,0
2023,8,30,3,60,9,25.4,24.4,94.0,101325,0,0,0,0,0,0,0,0,0,0,0,4.5,0,0,9999,77777,9,999999999,0,0,0,99,0.2,0,0
2023,8,30,4,60,9,26.2,24.7,92.0,101325,0,0,0,0,0,0,0,0,0,0,0,4.1,0,0,9999,77777,9,999999999,0,0,0,99,0.2,0,0
2023,8,30,5,60,9,27.3,24.9,87.0,101325,0,0,0,0,0,0,0,0,0,0,0,1.1,0,0,9999,77777,9,999999999,0,0,0,99,0.2,0,0
2023,8,30,6,60,9,28.3,24.6,81.0,101325,0,0,0,0,0,0,0,0,0,0,0,3.7,0,0,9999,77777,9,999999999,0,0,0,99,0.2,0,0
2023,8,30,7,60,9,29.1,24.0,74.0,101325,0,0,0,0,0,0,0,0,0,0,0,6.9,0,0,9999,77777,9,999999999,0,0,0,99,0.2,0,0
2023,8,30,8,60,9,29.3,24.1,74.0,101325,0,0,0,0,0,0,0,0,0,0,0,9.4,0,0,9999,77777,9,999999999,0,0,0,99,0.2,0,0
2023,8,30,9,60,9,29.3,24.2,74.0,101325,0,0,0,0,0,0,0,0,0,0,0,11.6,0,0,9999,77777,9,999999999,0,0,0,99,0.2,0,0
2023,8,30,10,60,9,29.2,24.3,75.0,101325,0,0,0,0,0,0,0,0,0,0,0,13.6,0,0,9999,77777,9,999999999,0,0,0,99,0.2,0,0
2023,8,30,11,60,9,28.8,24.5,77.0,101325,0,0,0,0,0,0,0,0,0,0,0,13.8,0,0,9999,77777,9,999999999,0,0,0,99,0.2,0,0
2023,8,30,12,60,9,28.6,24.4,78.0,101325,0,0,0,0,0,0,0,0,0,0,0,13.0,0,0,9999,77777,9,999999999,0,0,0,99,0.2,0,0
2023,8,30,13,60,9,28.0,24.3,80.0,101325,0,0,0,0,0,0,0,0,0,0,0,13.4,0,0,9999,77777,9,999999999,0,0,0,99,0.2,0,0
2023,8,30,14,60,9,27.4,24.1,82.0,101325,0,0,0,0,0,0,0,0,0,0,0,12.1,0,0,9999,77777,9,999999999,0,0,0,99,0.2,0,0
2023,8,30,15,60,9,26.8,24.1,85.0,101325,0,0,0,0,0,0,0,0,0,0,0,6.9,0,0,9999,77777,9,999999999,0,0,0,99,0.2,0,0
2023,8,30,16,60,9,26.4,24.2,88.0,101325,0,0,0,0,0,0,0,0,0,0,0,4.8,0,0,9999,77777,9,999999999,0,0,0,99,0.2,0,0
2023,8,30,17,60,9,25.5,24.3,93.0,101325,0,0,0,0,0,0,0,0,0,0,0,5.7,0,0,9999,77777,9,999999999,0,0,0,99,0.2,0,0
2023,8,30,18,60,9,25.7,24.2,91.0,101325,0,0,0,0,0,0,0,0,0,0,0,3.5,0,0,9999,77777,9,999999999,0,0,0,99,0.2,0,0
2023,8,30,19,60,9,25.9,24.2,90.0,101325,0,0,0,0,0,0,0,0,0,0,0,1.8,0,0,9999,77777,9,999999999,0,0,0,99,0.2,0,0
2023,8,30,20,60,9,25.7,24.3,92.0,101325,0,0,0,0,0,0,0,0,0,0,0,0.5,0,0,9999,77777,9,999999999,0,0,0,99,0.2,0,0
2023,8,30,21,60,9,25.6,24.3,92.0,101325,0,0,0,0,0,0,0,0,0,0,0,1.6,0,0,9999,77777,9,999999999,0,0,0,99,0.2,0,0
2023,8,30,22,60,9,25.7,24.3,92.0,101325,0,0,0,0,0,0,0,0,0,0,0,1.8,0,0,9999,77777,9,999999999,0,0,0,99,0.2,0,0
2023,8,30,23,60,9,25.8,24.3,92.0,101325,0,0,0,0,0,0,0,0,0,0,0,2.6,0,0,9999,77777,9,999999999,0,0,0,99,0.2,0,0
2023,8,30,24,60,9,25.6,24.3,92.0,101325,0,0,0,0,0,0,0,0,0,0,0,1.6,0,0,9999,77777,9,999999999,0,0,0,99,0.2,0,0
2023,8,31,1,60,9,25.0,24.2,96.0,101325,0,0,0,0,0,0,0,0,0,0,0,3.5,0,0,9999,77777,9,999999999,0,0,0,99,0.2,0,0
2023,8,31,2,60,9,24.7,23.7,94.0,101325,0,0,0,0,0,0,0,0,0,0,0,5.9,0,0,9999,77777,9,999999999,0,0,0,99,0.2,0,0
2023,8,31,3,60,9,25.3,24.2,94.0,101325,0,0,0,0,0,0,0,0,0,0,0,4.8,0,0,9999,77777,9,999999999,0,0,0,99,0.2,0,0
2023,8,31,4,60,9,26.7,24.4,87.0,101325,0,0,0,0,0,0,0,0,0,0,0,5.6,0,0,9999,77777,9,999999999,0,0,0,99,0.2,0,0
2023,8,31,5,60,9,28.3,24.2,78.0,101325,0,0,0,0,0,0,0,0,0,0,0,5.4,0,0,9999,77777,9,999999999,0,0,0,99,0.2,0,0
2023,8,31,6,60,9,29.2,24.6,76.0,101325,0,0,0,0,0,0,0,0,0,0,0,3.7,0,0,9999,77777,9,999999999,0,0,0,99,0.2,0,0
2023,8,31,7,60,9,29.9,25.1,75.0,101325,0,0,0,0,0,0,0,0,0,0,0,4.8,0,0,9999,77777,9,999999999,0,0,0,99,0.2,0,0
2023,8,31,8,60,9,30.1,25.2,75.0,101325,0,0,0,0,0,0,0,0,0,0,0,9.8,0,0,9999,77777,9,999999999,0,0,0,99,0.2,0,0
2023,8,31,9,60,9,30.0,24.2,71.0,101325,0,0,0,0,0,0,0,0,0,0,0,13.0,0,0,9999,77777,9,999999999,0,0,0,99,0.2,0,0
2023,8,31,10,60,9,29.5,24.0,72.0,101325,0,0,0,0,0,0,0,0,0,0,0,15.2,0,0,9999,77777,9,999999999,0,0,0,99,0.2,0,0
2023,8,31,11,60,9,29.1,24.4,76.0,101325,0,0,0,0,0,0,0,0,0,0,0,14.8,0,0,9999,77777,9,999999999,0,0,0,99,0.2,0,0
2023,8,31,12,60,9,28.7,24.7,79.0,101325,0,0,0,0,0,0,0,0,0,0,0,14.5,0,0,9999,77777,9,999999999,0,0,0,99,0.2,0,0
2023,8,31,13,60,9,28.3,24.6,80.0,101325,0,0,0,0,0,0,0,0,0,0,0,14.5,0,0,9999,77777,9,999999999,0,0,0,99,0.2,0,0
2023,8,31,14,60,9,27.7,24.5,83.0,101325,0,0,0,0,0,0,0,0,0,0,0,13.2,0,0,9999,77777,9,999999999,0,0,0,99,0.2,0,0
2023,8,31,15,60,9,27.1,24.5,86.0,101325,0,0,0,0,0,0,0,0,0,0,0,11.6,0,0,9999,77777,9,999999999,0,0,0,99,0.2,0,0
2023,8,31,16,60,9,26.7,24.5,88.0,101325,0,0,0,0,0,0,0,0,0,0,0,7.8,0,0,9999,77777,9,999999999,0,0,0,99,0.2,0,0
2023,8,31,17,60,9,26.4,24.6,90.0,101325,0,0,0,0,0,0,0,0,0,0,0,7.6,0,0,9999,77777,9,999999999,0,0,0,99,0.2,0,0
2023,8,31,18,60,9,26.1,24.6,92.0,101325,0,0,0,0,0,0,0,0,0,0,0,5.5,0,0,9999,77777,9,999999999,0,0,0,99,0.2,0,0
2023,8,31,19,60,9,25.4,24.6,95.0,101325,0,0,0,0,0,0,0,0,0,0,0,5.2,0,0,9999,77777,9,999999999,0,0,0,99,0.2,0,0
2023,8,31,20,60,9,25.1,24.4,96.0,101325,0,0,0,0,0,0,0,0,0,0,0,5.9,0,0,9999,77777,9,999999999,0,0,0,99,0.2,0,0
2023,8,31,21,60,9,25.1,24.4,96.0,101325,0,0,0,0,0,0,0,0,0,0,0,4.3,0,0,9999,77777,9,999999999,0,0,0,99,0.2,0,0
2023,8,31,22,60,9,25.0,24.4,96.0,101325,0,0,0,0,0,0,0,0,0,0,0,3.4,0,0,9999,77777,9,999999999,0,0,0,99,0.2,0,0
2023,8,31,23,60,9,25.0,24.5,97.0,101325,0,0,0,0,0,0,0,0,0,0,0,3.3,0,0,9999,77777,9,999999999,0,0,0,99,0.2,0,0
2023,8,31,24,60,9,25.1,24.3,96.0,101325,0,0,0,0,0,0,0,0,0,0,0,4.6,0,0,9999,77777,9,999999999,0,0,0,99,0.2,0,0
2023,9,1,1,60,9,24.1,23.4,96.0,101325,0,0,0,0,0,0,0,0,0,0,0,12.1,0,0,9999,77777,9,999999999,0,0,0,99,0.2,0,0
2023,9,1,2,60,9,24.7,23.6,94.0,101325,0,0,0,0,0,0,0,0,0,0,0,0.8,0,0,9999,77777,9,999999999,0,0,0,99,0.2,0,0
2023,9,1,3,60,9,25.2,23.9,93.0,101325,0,0,0,0,0,0,0,0,0,0,0,2.0,0,0,9999,77777,9,999999999,0,0,0,99,0.2,0,0
2023,9,1,4,60,9,26.4,24.4,89.0,101325,0,0,0,0,0,0,0,0,0,0,0,4.6,0,0,9999,77777,9,999999999,0,0,0,99,0.2,0,0
2023,9,1,5,60,9,27.9,24.5,82.0,101325,0,0,0,0,0,0,0,0,0,0,0,4.8,0,0,9999,77777,9,999999999,0,0,0,99,0.2,0,0
2023,9,1,6,60,9,29.2,24.8,77.0,101325,0,0,0,0,0,0,0,0,0,0,0,2.4,0,0,9999,77777,9,999999999,0,0,0,99,0.2,0,0
2023,9,1,7,60,9,30.1,25.3,76.0,101325,0,0,0,0,0,0,0,0,0,0,0,2.4,0,0,9999,77777,9,999999999,0,0,0,99,0.2,0,0
2023,9,1,8,60,9,30.5,25.7,76.0,101325,0,0,0,0,0,0,0,0,0,0,0,7.6,0,0,9999,77777,9,999999999,0,0,0,99,0.2,0,0
2023,9,1,9,60,9,30.1,24.9,74.0,101325,0,0,0,0,0,0,0,0,0,0,0,12.5,0,0,9999,77777,9,999999999,0,0,0,99,0.2,0,0
2023,9,1,10,60,9,29.7,24.7,75.0,101325,0,0,0,0,0,0,0,0,0,0,0,15.0,0,0,9999,77777,9,999999999,0,0,0,99,0.2,0,0
2023,9,1,11,60,9,29.3,24.5,75.0,101325,0,0,0,0,0,0,0,0,0,0,0,16.6,0,0,9999,77777,9,999999999,0,0,0,99,0.2,0,0
2023,9,1,12,60,9,29.0,24.3,76.0,101325,0,0,0,0,0,0,0,0,0,0,0,17.6,0,0,9999,77777,9,999999999,0,0,0,99,0.2,0,0
2023,9,1,13,60,9,28.3,24.3,79.0,101325,0,0,0,0,0,0,0,0,0,0,0,18.8,0,0,9999,77777,9,999999999,0,0,0,99,0.2,0,0
2023,9,1,14,60,9,28.0,24.4,81.0,101325,0,0,0,0,0,0,0,0,0,0,0,12.8,0,0,9999,77777,9,999999999,0,0,0,99,0.2,0,0
2023,9,1,15,60,9,27.6,24.5,83.0,101325,0,0,0,0,0,0,0,0,0,0,0,10.5,0,0,9999,77777,9,999999999,0,0,0,99,0.2,0,0
2023,9,1,16,60,9,27.3,24.6,85.0,101325,0,0,0,0,0,0,0,0,0,0,0,8.4,0,0,9999,77777,9,999999999,0,0,0,99,0.2,0,0
2023,9,1,17,60,9,26.8,24.9,90.0,101325,0,0,0,0,0,0,0,0,0,0,0,3.7,0,0,9999,77777,9,999999999,0,0,0,99,0.2,0,0
2023,9,1,18,60,9,26.4,25.1,93.0,101325,0,0,0,0,0,0,0,0,0,0,0,3.4,0,0,9999,77777,9,999999999,0,0,0,99,0.2,0,0
2023,9,1,19,60,9,26.1,25.4,96.0,101325,0,0,0,0,0,0,0,0,0,0,0,2.8,0,0,9999,77777,9,999999999,0,0,0,99,0.2,0,0
2023,9,1,20,60,9,25.8,25.2,96.0,101325,0,0,0,0,0,0,0,0,0,0,0,3.0,0,0,9999,77777,9,999999999,0,0,0,99,0.2,0,0
2023,9,1,21,60,9,25.6,25.1,97.0,101325,0,0,0,0,0,0,0,0,0,0,0,2.9,0,0,9999,77777,9,999999999,0,0,0,99,0.2,0,0
2023,9,1,22,60,9,25.4,24.9,97.0,101325,0,0,0,0,0,0,0,0,0,0,0,2.9,0,0,9999,77777,9,999999999,0,0,0,99,0.2,0,0
2023,9,1,23,60,9,25.2,24.7,97.0,101325,0,0,0,0,0,0,0,0,0,0,0,3.0,0,0,9999,77777,9,999999999,0,0,0,99,0.2,0,0
2023,9,1,24,60,9,25.2,24.5,96.0,101325,0,0,0,0,0,0,0,0,0,0,0,3.5,0,0,9999,77777,9,999999999,0,0,0,99,0.2,0,0
2023,9,2,1,60,9,24.9,23.9,94.0,101325,0,0,0,0,0,0,0,0,0,0,0,6.5,0,0,9999,77777,9,999999999,0,0,0,99,0.2,0,0
2023,9,2,2,60,9,25.4,23.8,91.0,101325,0,0,0,0,0,0,0,0,0,0,0,3.6,0,0,9999,77777,9,999999999,0,0,0,99,0.2,0,0
2023,9,2,3,60,9,25.4,23.8,91.0,101325,0,0,0,0,0,0,0,0,0,0,0,4.3,0,0,9999,77777,9,999999999,0,0,0,99,0.2,0,0
2023,9,2,4,60,9,25.5,24.3,93.0,101325,0,0,0,0,0,0,0,0,0,0,0,5.2,0,0,9999,77777,9,999999999,0,0,0,99,0.2,0,0
2023,9,2,5,60,9,26.4,24.2,88.0,101325,0,0,0,0,0,0,0,0,0,0,0,6.0,0,0,9999,77777,9,999999999,0,0,0,99,0.2,0,0
2023,9,2,6,60,9,26.9,24.4,86.0,101325,0,0,0,0,0,0,0,0,0,0,0,3.9,0,0,9999,77777,9,999999999,0,0,0,99,0.2,0,0
2023,9,2,7,60,9,27.5,24.4,83.0,101325,0,0,0,0,0,0,0,0,0,0,0,2.7,0,0,9999,77777,9,999999999,0,0,0,99,0.2,0,0
2023,9,2,8,60,9,27.4,24.5,84.0,101325,0,0,0,0,0,0,0,0,0,0,0,3.1,0,0,9999,77777,9,999999999,0,0,0,99,0.2,0,0
2023,9,2,9,60,9,27.8,24.6,83.0,101325,0,0,0,0,0,0,0,0,0,0,0,7.2,0,0,9999,77777,9,999999999,0,0,0,99,0.2,0,0
2023,9,2,10,60,9,28.4,24.8,81.0,101325,0,0,0,0,0,0,0,0,0,0,0,11.5,0,0,9999,77777,9,999999999,0,0,0,99,0.2,0,0
2023,9,2,11,60,9,28.7,24.7,79.0,101325,0,0,0,0,0,0,0,0,0,0,0,12.1,0,0,9999,77777,9,999999999,0,0,0,99,0.2,0,0
2023,9,2,12,60,9,28.7,24.3,77.0,101325,0,0,0,0,0,0,0,0,0,0,0,12.3,0,0,9999,77777,9,999999999,0,0,0,99,0.2,0,0
2023,9,2,13,60,9,27.4,24.3,83.0,101325,0,0,0,0,0,0,0,0,0,0,0,10.5,0,0,9999,77777,9,999999999,0,0,0,99,0.2,0,0
2023,9,2,14,60,9,27.3,24.2,83.0,101325,0,0,0,0,0,0,0,0,0,0,0,8.6,0,0,9999,77777,9,999999999,0,0,0,99,0.2,0,0
2023,9,2,15,60,9,26.8,24.4,87.0,101325,0,0,0,0,0,0,0,0,0,0,0,4.2,0,0,9999,77777,9,999999999,0,0,0,99,0.2,0,0
2023,9,2,16,60,9,26.0,24.9,93.0,101325,0,0,0,0,0,0,0,0,0,0,0,4.4,0,0,9999,77777,9,999999999,0,0,0,99,0.2,0,0
2023,9,2,17,60,9,26.5,24.6,89.0,101325,0,0,0,0,0,0,0,0,0,0,0,1.8,0,0,9999,77777,9,999999999,0,0,0,99,0.2,0,0
2023,9,2,18,60,9,26.7,24.5,88.0,101325,0,0,0,0,0,0,0,0,0,0,0,0.5,0,0,9999,77777,9,999999999,0,0,0,99,0.2,0,0
2023,9,2,19,60,9,26.6,24.6,89.0,101325,0,0,0,0,0,0,0,0,0,0,0,1.3,0,0,9999,77777,9,999999999,0,0,0,99,0.2,0,0
2023,9,2,20,60,9,26.7,24.6,88.0,101325,0,0,0,0,0,0,0,0,0,0,0,1.6,0,0,9999,77777,9,999999999,0,0,0,99,0.2,0,0
2023,9,2,21,60,9,26.2,24.9,93.0,101325,0,0,0,0,0,0,0,0,0,0,0,3.1,0,0,9999,77777,9,999999999,0,0,0,99,0.2,0,0
2023,9,2,22,60,9,26.0,24.9,94.0,101325,0,0,0,0,0,0,0,0,0,0,0,2.9,0,0,9999,77777,9,999999999,0,0,0,99,0.2,0,0
2023,9,2,23,60,9,26.1,25.0,93.0,101325,0,0,0,0,0,0,0,0,0,0,0,1.8,0,0,9999,77777,9,999999999,0,0,0,99,0.2,0,0
2023,9,2,24,60,9,26.0,24.7,92.0,101325,0,0,0,0,0,0,0,0,0,0,0,1.9,0,0,9999,77777,9,999999999,0,0,0,99,0.2,0,0
2023,9,3,1,60,9,25.6,24.5,94.0,101325,0,0,0,0,0,0,0,0,0,0,0,2.2,0,0,9999,77777,9,999999999,0,0,0,99,0.2,0,0
2023,9,3,2,60,9,25.8,24.6,93.0,101325,0,0,0,0,0,0,0,0,0,0,0,1.8,0,0,9999,77777,9,999999999,0,0,0,99,0.2,0,0
2023,9,3,3,60,9,26.4,24.5,89.0,101325,0,0,0,0,0,0,0,0,0,0,0,2.0,0,0,9999,77777,9,999999999,0,0,0,99,0.2,0,0
2023,9,3,4,60,9,27.0,24.7,88.0,101325,0,0,0,0,0,0,0,0,0,0,0,2.9,0,0,9999,77777,9,999999999,0,0,0,99,0.2,0,0
2023,9,3,5,60,9,27.5,24.7,85.0,101325,0,0,0,0,0,0,0,0,0,0,0,6.2,0,0,9999,77777,9,999999999,0,0,0,99,0.2,0,0
2023,9,3,6,60,9,28.3,24.3,79.0,101325,0,0,0,0,0,0,0,0,0,0,0,8.4,0,0,9999,77777,9,999999999,0,0,0,99,0.2,0,0
2023,9,3,7,60,9,27.7,23.9,80.0,101325,0,0,0,0,0,0,0,0,0,0,0,11.8,0,0,9999,77777,9,999999999,0,0,0,99,0.2,0,0
2023,9,3,8,60,9,28.7,24.9,80.0,101325,0,0,0,0,0,0,0,0,0,0,0,12.6,0,0,9999,77777,9,999999999,0,0,0,99,0.2,0,0
2023,9,3,9,60,9,29.1,24.5,76.0,101325,0,0,0,0,0,0,0,0,0,0,0,14.5,0,0,9999,77777,9,999999999,0,0,0,99,0.2,0,0
2023,9,3,10,60,9,28.8,24.2,76.0,101325,0,0,0,0,0,0,0,0,0,0,0,15.8,0,0,9999,77777,9,999999999,0,0,0,99,0.2,0,0
2023,9,3,11,60,9,28.8,23.8,74.0,101325,0,0,0,0,0,0,0,0,0,0,0,17.6,0,0,9999,77777,9,999999999,0,0,0,99,0.2,0,0
2023,9,3,12,60,9,28.5,23.8,76.0,101325,0,0,0,0,0,0,0,0,0,0,0,16.3,0,0,9999,77777,9,999999999,0,0,0,99,0.2,0,0
2023,9,3,13,60,9,27.5,23.5,79.0,101325,0,0,0,0,0,0,0,0,0,0,0,15.3,0,0,9999,77777,9,999999999,0,0,0,99,0.2,0,0
2023,9,3,14,60,9,26.9,23.8,83.0,101325,0,0,0,0,0,0,0,0,0,0,0,12.0,0,0,9999,77777,9,999999999,0,0,0,99,0.2,0,0
2023,9,3,15,60,9,26.7,23.9,85.0,101325,0,0,0,0,0,0,0,0,0,0,0,10.2,0,0,9999,77777,9,999999999,0,0,0,99,0.2,0,0
2023,9,3,16,60,9,26.1,24.1,89.0,101325,0,0,0,0,0,0,0,0,0,0,0,9.9,0,0,9999,77777,9,999999999,0,0,0,99,0.2,0,0
2023,9,3,17,60,9,25.1,23.6,92.0,101325,0,0,0,0,0,0,0,0,0,0,0,11.1,0,0,9999,77777,9,999999999,0,0,0,99,0.2,0,0
2023,9,3,18,60,9,25.2,23.5,90.0,101325,0,0,0,0,0,0,0,0,0,0,0,2.1,0,0,9999,77777,9,999999999,0,0,0,99,0.2,0,0
2023,9,3,19,60,9,25.1,23.9,93.0,101325,0,0,0,0,0,0,0,0,0,0,0,1.0,0,0,9999,77777,9,999999999,0,0,0,99,0.2,0,0
2023,9,3,20,60,9,24.7,23.7,94.0,101325,0,0,0,0,0,0,0,0,0,0,0,2.9,0,0,9999,77777,9,999999999,0,0,0,99,0.2,0,0
2023,9,3,21,60,9,24.5,23.5,94.0,101325,0,0,0,0,0,0,0,0,0,0,0,3.9,0,0,9999,77777,9,999999999,0,0,0,99,0.2,0,0
2023,9,3,22,60,9,24.1,23.4,96.0,101325,0,0,0,0,0,0,0,0,0,0,0,4.3,0,0,9999,77777,9,999999999,0,0,0,99,0.2,0,0
2023,9,3,23,60,9,23.9,23.2,96.0,101325,0,0,0,0,0,0,0,0,0,0,0,2.7,0,0,9999,77777,9,999999999,0,0,0,99,0.2,0,0
2023,9,3,24,60,9,24.3,23.5,95.0,101325,0,0,0,0,0,0,0,0,0,0,0,3.8,0,0,9999,77777,9,999999999,0,0,0,99,0.2,0,0
2023,9,4,1,60,9,25.6,24.2,92.0,101325,0,0,0,0,0,0,0,0,0,0,0,3.4,0,0,9999,77777,9,999999999,0,0,0,99,0.2,0,0
2023,9,4,2,60,9,25.7,24.3,92.0,101325,0,0,0,0,0,0,0,0,0,0,0,2.3,0,0,9999,77777,9,999999999,0,0,0,99,0.2,0,0
2023,9,4,3,60,9,26.2,24.4,90.0,101325,0,0,0,0,0,0,0,0,0,0,0,4.8,0,0,9999,77777,9,999999999,0,0,0,99,0.2,0,0
2023,9,4,4,60,9,26.9,24.5,87.0,101325,0,0,0,0,0,0,0,0,0,0,0,4.3,0,0,9999,77777,9,999999999,0,0,0,99,0.2,0,0
2023,9,4,5,60,9,27.6,24.9,85.0,101325,0,0,0,0,0,0,0,0,0,0,0,4.7,0,0,9999,77777,9,999999999,0,0,0,99,0.2,0,0
2023,9,4,6,60,9,28.4,24.0,77.0,101325,0,0,0,0,0,0,0,0,0,0,0,11.0,0,0,9999,77777,9,999999999,0,0,0,99,0.2,0,0
2023,9,4,7,60,9,29.0,24.1,75.0,101325,0,0,0,0,0,0,0,0,0,0,0,12.0,0,0,9999,77777,9,999999999,0,0,0,99,0.2,0,0
2023,9,4,8,60,9,29.5,23.9,72.0,101325,0,0,0,0,0,0,0,0,0,0,0,14.3,0,0,9999,77777,9,999999999,0,0,0,99,0.2,0,0
2023,9,4,9,60,9,29.4,23.7,71.0,101325,0,0,0,0,0,0,0,0,0,0,0,16.2,0,0,9999,77777,9,999999999,0,0,0,99,0.2,0,0
2023,9,4,10,60,9,29.3,23.6,71.0,101325,0,0,0,0,0,0,0,0,0,0,0,16.8,0,0,9999,77777,9,999999999,0,0,0,99,0.2,0,0
2023,9,4,11,60,9,29.2,23.6,72.0,101325,0,0,0,0,0,0,0,0,0,0,0,17.6,0,0,9999,77777,9,999999999,0,0,0,99,0.2,0,0
2023,9,4,12,60,9,28.9,23.3,72.0,101325,0,0,0,0,0,0,0,0,0,0,0,17.7,0,0,9999,77777,9,999999999,0,0,0,99,0.2,0,0
2023,9,4,13,60,9,28.6,23.3,73.0,101325,0,0,0,0,0,0,0,0,0,0,0,15.0,0,0,9999,77777,9,999999999,0,0,0,99,0.2,0,0
2023,9,4,14,60,9,27.8,23.3,77.0,101325,0,0,0,0,0,0,0,0,0,0,0,12.6,0,0,9999,77777,9,999999999,0,0,0,99,0.2,0,0
2023,9,4,15,60,9,27.2,23.2,79.0,101325,0,0,0,0,0,0,0,0,0,0,0,11.1,0,0,9999,77777,9,999999999,0,0,0,99,0.2,0,0
2023,9,4,16,60,9,26.8,23.4,82.0,101325,0,0,0,0,0,0,0,0,0,0,0,9.0,0,0,9999,77777,9,999999999,0,0,0,99,0.2,0,0
2023,9,4,17,60,9,26.3,23.6,85.0,101325,0,0,0,0,0,0,0,0,0,0,0,6.3,0,0,9999,77777,9,999999999,0,0,0,99,0.2,0,0
2023,9,4,18,60,9,25.9,23.7,88.0,101325,0,0,0,0,0,0,0,0,0,0,0,4.8,0,0,9999,77777,9,999999999,0,0,0,99,0.2,0,0
2023,9,4,19,60,9,25.6,23.7,90.0,101325,0,0,0,0,0,0,0,0,0,0,0,4.8,0,0,9999,77777,9,999999999,0,0,0,99,0.2,0,0
2023,9,4,20,60,9,25.2,23.6,91.0,101325,0,0,0,0,0,0,0,0,0,0,0,4.8,0,0,9999,77777,9,999999999,0,0,0,99,0.2,0,0
2023,9,4,21,60,9,25.0,23.5,92.0,101325,0,0,0,0,0,0,0,0,0,0,0,5.0,0,0,9999,77777,9,999999999,0,0,0,99,0.2,0,0
2023,9,4,22,60,9,25.2,23.5,90.0,101325,0,0,0,0,0,0,0,0,0,0,0,5.4,0,0,9999,77777,9,999999999,0,0,0,99,0.2,0,0
2023,9,4,23,60,9,25.1,23.5,91.0,101325,0,0,0,0,0,0,0,0,0,0,0,4.7,0,0,9999,77777,9,999999999,0,0,0,99,0.2,0,0
2023,9,4,24,60,9,24.7,23.5,93.0,101325,0,0,0,0,0,0,0,0,0,0,0,4.6,0,0,9999,77777,9,999999999,0,0,0,99,0.2,0,0
2023,9,5,1,60,9,25.3,23.8,91.0,101325,0,0,0,0,0,0,0,0,0,0,0,6.1,0,0,9999,77777,9,999999999,0,0,0,99,0.2,0,0
2023,9,5,2,60,9,25.4,23.9,91.0,101325,0,0,0,0,0,0,0,0,0,0,0,6.8,0,0,9999,77777,9,999999999,0,0,0,99,0.2,0,0
2023,9,5,3,60,9,26.0,23.4,86.0,101325,0,0,0,0,0,0,0,0,0,0,0,10.0,0,0,9999,77777,9,999999999,0,0,0,99,0.2,0,0
2023,9,5,4,60,9,26.9,23.5,82.0,101325,0,0,0,0,0,0,0,0,0,0,0,11.4,0,0,9999,77777,9,999999999,0,0,0,99,0.2,0,0
2023,9,5,5,60,9,27.9,23.5,77.0,101325,0,0,0,0,0,0,0,0,0,0,0,10.3,0,0,9999,77777,9,999999999,0,0,0,99,0.2,0,0
2023,9,5,6,60,9,28.5,23.8,76.0,101325,0,0,0,0,0,0,0,0,0,0,0,11.2,0,0,9999,77777,9,999999999,0,0,0,99,0.2,0,0
2023,9,5,7,60,9,28.9,23.9,74.0,101325,0,0,0,0,0,0,0,0,0,0,0,13.0,0,0,9999,77777,9,999999999,0,0,0,99,0.2,0,0
2023,9,5,8,60,9,29.2,24.1,74.0,101325,0,0,0,0,0,0,0,0,0,0,0,14.0,0,0,9999,77777,9,999999999,0,0,0,99,0.2,0,0
2023,9,5,9,60,9,29.1,24.2,75.0,101325,0,0,0,0,0,0,0,0,0,0,0,15.2,0,0,9999,77777,9,999999999,0,0,0,99,0.2,0,0
2023,9,5,10,60,9,29.0,24.5,77.0,101325,0,0,0,0,0,0,0,0,0,0,0,17.1,0,0,9999,77777,9,999999999,0,0,0,99,0.2,0,0
2023,9,5,11,60,9,28.8,24.3,76.0,101325,0,0,0,0,0,0,0,0,0,0,0,17.2,0,0,9999,77777,9,999999999,0,0,0,99,0.2,0,0
2023,9,5,12,60,9,28.5,24.2,78.0,101325,0,0,0,0,0,0,0,0,0,0,0,16.8,0,0,9999,77777,9,999999999,0,0,0,99,0.2,0,0
2023,9,5,13,60,9,28.2,24.1,78.0,101325,0,0,0,0,0,0,0,0,0,0,0,15.5,0,0,9999,77777,9,999999999,0,0,0,99,0.2,0,0
2023,9,5,14,60,9,27.5,24.1,82.0,101325,0,0,0,0,0,0,0,0,0,0,0,12.5,0,0,9999,77777,9,999999999,0,0,0,99,0.2,0,0
2023,9,5,15,60,9,27.1,24.0,83.0,101325,0,0,0,0,0,0,0,0,0,0,0,10.5,0,0,9999,77777,9,999999999,0,0,0,99,0.2,0,0
2023,9,5,16,60,9,26.8,24.0,85.0,101325,0,0,0,0,0,0,0,0,0,0,0,8.8,0,0,9999,77777,9,999999999,0,0,0,99,0.2,0,0
2023,9,5,17,60,9,26.7,24.0,85.0,101325,0,0,0,0,0,0,0,0,0,0,0,8.6,0,0,9999,77777,9,999999999,0,0,0,99,0.2,0,0
2023,9,5,18,60,9,26.5,24.0,86.0,101325,0,0,0,0,0,0,0,0,0,0,0,8.7,0,0,9999,77777,9,999999999,0,0,0,99,0.2,0,0
2023,9,5,19,60,9,26.5,24.1,87.0,101325,0,0,0,0,0,0,0,0,0,0,0,8.6,0,0,9999,77777,9,999999999,0,0,0,99,0.2,0,0
2023,9,5,20,60,9,26.2,24.0,87.0,101325,0,0,0,0,0,0,0,0,0,0,0,6.8,0,0,9999,77777,9,999999999,0,0,0,99,0.2,0,0
2023,9,5,21,60,9,26.0,23.9,88.0,101325,0,0,0,0,0,0,0,0,0,0,0,6.9,0,0,9999,77777,9,999999999,0,0,0,99,0.2,0,0
2023,9,5,22,60,9,26.0,23.7,87.0,101325,0,0,0,0,0,0,0,0,0,0,0,8.0,0,0,9999,77777,9,999999999,0,0,0,99,0.2,0,0
2023,9,5,23,60,9,26.2,23.6,86.0,101325,0,0,0,0,0,0,0,0,0,0,0,8.9,0,0,9999,77777,9,999999999,0,0,0,99,0.2,0,0
2023,9,5,24,60,9,26.1,23.6,86.0,101325,0,0,0,0,0,0,0,0,0,0,0,10.0,0,0,9999,77777,9,999999999,0,0,0,99,0.2,0,0
2023,9,6,1,60,9,26.3,24.0,87.0,101325,0,0,0,0,0,0,0,0,0,0,0,8.0,0,0,9999,77777,9,999999999,0,0,0,99,0.2,0,0
2023,9,6,2,60,9,26.3,24.1,88.0,101325,0,0,0,0,0,0,0,0,0,0,0,7.9,0,0,9999,77777,9,999999999,0,0,0,99,0.2,0,0
2023,9,6,3,60,9,27.1,24.5,86.0,101325,0,0,0,0,0,0,0,0,0,0,0,10.2,0,0,9999,77777,9,999999999,0,0,0,99,0.2,0,0
2023,9,6,4,60,9,27.8,23.7,79.0,101325,0,0,0,0,0,0,0,0,0,0,0,11.5,0,0,9999,77777,9,999999999,0,0,0,99,0.2,0,0
2023,9,6,5,60,9,28.5,24.0,77.0,101325,0,0,0,0,0,0,0,0,0,0,0,10.7,0,0,9999,77777,9,999999999,0,0,0,99,0.2,0,0
2023,9,6,6,60,9,29.2,24.4,75.0,101325,0,0,0,0,0,0,0,0,0,0,0,10.0,0,0,9999,77777,9,999999999,0,0,0,99,0.2,0,0
2023,9,6,7,60,9,29.5,24.5,74.0,101325,0,0,0,0,0,0,0,0,0,0,0,10.9,0,0,9999,77777,9,999999999,0,0,0,99,0.2,0,0
2023,9,6,8,60,9,29.9,24.3,72.0,101325,0,0,0,0,0,0,0,0,0,0,0,11.6,0,0,9999,77777,9,999999999,0,0,0,99,0.2,0,0
2023,9,6,9,60,9,29.8,24.4,73.0,101325,0,0,0,0,0,0,0,0,0,0,0,14.2,0,0,9999,77777,9,999999999,0,0,0,99,0.2,0,0
2023,9,6,10,60,9,29.5,24.4,74.0,101325,0,0,0,0,0,0,0,0,0,0,0,15.9,0,0,9999,77777,9,999999999,0,0,0,99,0.2,0,0
2023,9,6,11,60,9,29.4,24.4,75.0,101325,0,0,0,0,0,0,0,0,0,0,0,17.3,0,0,9999,77777,9,999999999,0,0,0,99,0.2,0,0
2023,9,6,12,60,9,28.9,24.3,76.0,101325,0,0,0,0,0,0,0,0,0,0,0,17.7,0,0,9999,77777,9,999999999,0,0,0,99,0.2,0,0
2023,9,6,13,60,9,28.7,24.4,78.0,101325,0,0,0,0,0,0,0,0,0,0,0,15.5,0,0,9999,77777,9,999999999,0,0,0,99,0.2,0,0
2023,9,6,14,60,9,28.1,24.7,82.0,101325,0,0,0,0,0,0,0,0,0,0,0,13.0,0,0,9999,77777,9,999999999,0,0,0,99,0.2,0,0
2023,9,6,15,60,9,27.6,24.6,83.0,101325,0,0,0,0,0,0,0,0,0,0,0,10.0,0,0,9999,77777,9,999999999,0,0,0,99,0.2,0,0
2023,9,6,16,60,9,27.4,24.1,82.0,101325,0,0,0,0,0,0,0,0,0,0,0,9.6,0,0,9999,77777,9,999999999,0,0,0,99,0.2,0,0
2023,9,6,17,60,9,27.4,24.2,82.0,101325,0,0,0,0,0,0,0,0,0,0,0,10.1,0,0,9999,77777,9,999999999,0,0,0,99,0.2,0,0
2023,9,6,18,60,9,27.4,24.1,82.0,101325,0,0,0,0,0,0,0,0,0,0,0,11.2,0,0,9999,77777,9,999999999,0,0,0,99,0.2,0,0
2023,9,6,19,60,9,27.3,24.1,83.0,101325,0,0,0,0,0,0,0,0,0,0,0,12.2,0,0,9999,77777,9,999999999,0,0,0,99,0.2,0,0
2023,9,6,20,60,9,27.2,24.0,83.0,101325,0,0,0,0,0,0,0,0,0,0,0,13.0,0,0,9999,77777,9,999999999,0,0,0,99,0.2,0,0
2023,9,6,21,60,9,27.3,23.7,81.0,101325,0,0,0,0,0,0,0,0,0,0,0,15.3,0,0,9999,77777,9,999999999,0,0,0,99,0.2,0,0
2023,9,6,22,60,9,27.1,23.8,82.0,101325,0,0,0,0,0,0,0,0,0,0,0,15.3,0,0,9999,77777,9,999999999,0,0,0,99,0.2,0,0
2023,9,6,23,60,9,27.1,23.8,82.0,101325,0,0,0,0,0,0,0,0,0,0,0,14.5,0,0,9999,77777,9,999999999,0,0,0,99,0.2,0,0
2023,9,6,24,60,9,27.0,23.7,82.0,101325,0,0,0,0,0,0,0,0,0,0,0,14.8,0,0,9999,77777,9,999999999,0,0,0,99,0.2,0,0
2023,9,7,1,60,9,26.9,23.6,82.0,101325,0,0,0,0,0,0,0,0,0,0,0,12.7,0,0,9999,77777,9,999999999,0,0,0,99,0.2,0,0
2023,9,7,2,60,9,26.8,23.9,84.0,101325,0,0,0,0,0,0,0,0,0,0,0,10.9,0,0,9999,77777,9,999999999,0,0,0,99,0.2,0,0
2023,9,7,3,60,9,25.3,23.9,92.0,101325,0,0,0,0,0,0,0,0,0,0,0,15.6,0,0,9999,77777,9,999999999,0,0,0,99,0.2,0,0
2023,9,7,4,60,9,25.0,23.7,93.0,101325,0,0,0,0,0,0,0,0,0,0,0,0.8,0,0,9999,77777,9,999999999,0,0,0,99,0.2,0,0
2023,9,7,5,60,9,25.9,24.3,91.0,101325,0,0,0,0,0,0,0,0,0,0,0,7.4,0,0,9999,77777,9,999999999,0,0,0,99,0.2,0,0
2023,9,7,6,60,9,26.4,24.3,88.0,101325,0,0,0,0,0,0,0,0,0,0,0,12.2,0,0,9999,77777,9,999999999,0,0,0,99,0.2,0,0
2023,9,7,7,60,9,26.9,24.7,88.0,101325,0,0,0,0,0,0,0,0,0,0,0,12.8,0,0,9999,77777,9,999999999,0,0,0,99,0.2,0,0
2023,9,7,8,60,9,27.5,24.7,85.0,101325,0,0,0,0,0,0,0,0,0,0,0,17.2,0,0,9999,77777,9,999999999,0,0,0,99,0.2,0,0
2023,9,7,9,60,9,28.3,25.0,82.0,101325,0,0,0,0,0,0,0,0,0,0,0,19.7,0,0,9999,77777,9,999999999,0,0,0,99,0.2,0,0
2023,9,7,10,60,9,28.3,24.8,81.0,101325,0,0,0,0,0,0,0,0,0,0,0,19.0,0,0,9999,77777,9,999999999,0,0,0,99,0.2,0,0
2023,9,7,11,60,9,28.3,23.6,76.0,101325,0,0,0,0,0,0,0,0,0,0,0,19.2,0,0,9999,77777,9,999999999,0,0,0,99,0.2,0,0
2023,9,7,12,60,9,27.8,23.5,78.0,101325,0,0,0,0,0,0,0,0,0,0,0,16.7,0,0,9999,77777,9,999999999,0,0,0,99,0.2,0,0
2023,9,7,13,60,9,27.0,24.0,84.0,101325,0,0,0,0,0,0,0,0,0,0,0,13.5,0,0,9999,77777,9,999999999,0,0,0,99,0.2,0,0
2023,9,7,14,60,9,27.2,23.6,81.0,101325,0,0,0,0,0,0,0,0,0,0,0,12.6,0,0,9999,77777,9,999999999,0,0,0,99,0.2,0,0
2023,9,7,15,60,9,27.1,23.7,81.0,101325,0,0,0,0,0,0,0,0,0,0,0,12.4,0,0,9999,77777,9,999999999,0,0,0,99,0.2,0,0
2023,9,7,16,60,9,27.0,23.9,83.0,101325,0,0,0,0,0,0,0,0,0,0,0,12.4,0,0,9999,77777,9,999999999,0,0,0,99,0.2,0,0
2023,9,7,17,60,9,27.1,24.1,84.0,101325,0,0,0,0,0,0,0,0,0,0,0,11.2,0,0,9999,77777,9,999999999,0,0,0,99,0.2,0,0
2023,9,7,18,60,9,27.1,24.4,85.0,101325,0,0,0,0,0,0,0,0,0,0,0,11.7,0,0,9999,77777,9,999999999,0,0,0,99,0.2,0,0
2023,9,7,19,60,9,27.4,24.4,84.0,101325,0,0,0,0,0,0,0,0,0,0,0,14.1,0,0,9999,77777,9,999999999,0,0,0,99,0.2,0,0
2023,9,7,20,60,9,25.7,24.0,91.0,101325,0,0,0,0,0,0,0,0,0,0,0,12.4,0,0,9999,77777,9,999999999,0,0,0,99,0.2,0,0
2023,9,7,21,60,9,25.9,24.4,91.0,101325,0,0,0,0,0,0,0,0,0,0,0,12.0,0,0,9999,77777,9,999999999,0,0,0,99,0.2,0,0
2023,9,7,22,60,9,26.3,24.7,91.0,101325,0,0,0,0,0,0,0,0,0,0,0,12.3,0,0,9999,77777,9,999999999,0,0,0,99,0.2,0,0
2023,9,7,23,60,9,26.1,24.4,90.0,101325,0,0,0,0,0,0,0,0,0,0,0,14.1,0,0,9999,77777,9,999999999,0,0,0,99,0.2,0,0
2023,9,7,24,60,9,25.9,24.4,91.0,101325,0,0,0,0,0,0,0,0,0,0,0,17.1,0,0,9999,77777,9,999999999,0,0,0,99,0.2,0,0
2023,9,8,1,60,9,26.5,24.5,89.0,101325,0,0,0,0,0,0,0,0,0,0,0,14.4,0,0,9999,77777,9,999999999,0,0,0,99,0.2,0,0
2023,9,8,2,60,9,26.0,24.6,92.0,101325,0,0,0,0,0,0,0,0,0,0,0,14.7,0,0,9999,77777,9,999999999,0,0,0,99,0.2,0,0
2023,9,8,3,60,9,26.8,24.6,88.0,101325,0,0,0,0,0,0,0,0,0,0,0,15.6,0,0,9999,77777,9,999999999,0,0,0,99,0.2,0,0
2023,9,8,4,60,9,27.3,25.0,87.0,101325,0,0,0,0,0,0,0,0,0,0,0,13.2,0,0,9999,77777,9,999999999,0,0,0,99,0.2,0,0
2023,9,8,5,60,9,27.9,25.3,86.0,101325,0,0,0,0,0,0,0,0,0,0,0,16.1,0,0,9999,77777,9,999999999,0,0,0,99,0.2,0,0
2023,9,8,6,60,9,28.1,25.1,84.0,101325,0,0,0,0,0,0,0,0,0,0,0,19.9,0,0,9999,77777,9,999999999,0,0,0,99,0.2,0,0
2023,9,8,7,60,9,27.5,24.7,84.0,101325,0,0,0,0,0,0,0,0,0,0,0,22.7,0,0,9999,77777,9,999999999,0,0,0,99,0.2,0,0
2023,9,8,8,60,9,26.8,25.0,90.0,101325,0,0,0,0,0,0,0,0,0,0,0,19.2,0,0,9999,77777,9,999999999,0,0,0,99,0.2,0,0
2023,9,8,9,60,9,27.1,24.4,85.0,101325,0,0,0,0,0,0,0,0,0,0,0,22.7,0,0,9999,77777,9,999999999,0,0,0,99,0.2,0,0
2023,9,8,10,60,9,26.7,24.6,89.0,101325,0,0,0,0,0,0,0,0,0,0,0,21.7,0,0,9999,77777,9,999999999,0,0,0,99,0.2,0,0
2023,9,8,11,60,9,26.3,24.7,91.0,101325,0,0,0,0,0,0,0,0,0,0,0,17.1,0,0,9999,77777,9,999999999,0,0,0,99,0.2,0,0
2023,9,8,12,60,9,26.7,24.8,90.0,101325,0,0,0,0,0,0,0,0,0,0,0,15.8,0,0,9999,77777,9,999999999,0,0,0,99,0.2,0,0
2023,9,8,13,60,9,26.3,24.3,89.0,101325,0,0,0,0,0,0,0,0,0,0,0,16.2,0,0,9999,77777,9,999999999,0,0,0,99,0.2,0,0
2023,9,8,14,60,9,26.0,24.6,92.0,101325,0,0,0,0,0,0,0,0,0,0,0,14.1,0,0,9999,77777,9,999999999,0,0,0,99,0.2,0,0
2023,9,8,15,60,9,26.5,24.5,89.0,101325,0,0,0,0,0,0,0,0,0,0,0,12.6,0,0,9999,77777,9,999999999,0,0,0,99,0.2,0,0
2023,9,8,16,60,9,26.9,24.6,87.0,101325,0,0,0,0,0,0,0,0,0,0,0,16.1,0,0,9999,77777,9,999999999,0,0,0,99,0.2,0,0
2023,9,8,17,60,9,27.0,24.7,88.0,101325,0,0,0,0,0,0,0,0,0,0,0,15.3,0,0,9999,77777,9,999999999,0,0,0,99,0.2,0,0
2023,9,8,18,60,9,27.0,25.1,89.0,101325,0,0,0,0,0,0,0,0,0,0,0,14.9,0,0,9999,77777,9,999999999,0,0,0,99,0.2,0,0
2023,9,8,19,60,9,27.0,25.0,89.0,101325,0,0,0,0,0,0,0,0,0,0,0,15.7,0,0,9999,77777,9,999999999,0,0,0,99,0.2,0,0
2023,9,8,20,60,9,27.1,24.8,87.0,101325,0,0,0,0,0,0,0,0,0,0,0,16.5,0,0,9999,77777,9,999999999,0,0,0,99,0.2,0,0
2023,9,8,21,60,9,27.2,24.5,85.0,101325,0,0,0,0,0,0,0,0,0,0,0,16.8,0,0,9999,77777,9,999999999,0,0,0,99,0.2,0,0
2023,9,8,22,60,9,27.0,24.3,85.0,101325,0,0,0,0,0,0,0,0,0,0,0,17.5,0,0,9999,77777,9,999999999,0,0,0,99,0.2,0,0
2023,9,8,23,60,9,27.1,24.4,85.0,101325,0,0,0,0,0,0,0,0,0,0,0,17.4,0,0,9999,77777,9,999999999,0,0,0,99,0.2,0,0
2023,9,8,24,60,9,27.0,24.5,86.0,101325,0,0,0,0,0,0,0,0,0,0,0,18.1,0,0,9999,77777,9,999999999,0,0,0,99,0.2,0,0
2023,9,9,1,60,9,26.6,24.6,89.0,101325,0,0,0,0,0,0,0,0,0,0,0,14.3,0,0,9999,77777,9,999999999,0,0,0,99,0.2,0,0
2023,9,9,2,60,9,27.3,24.9,87.0,101325,0,0,0,0,0,0,0,0,0,0,0,17.3,0,0,9999,77777,9,999999999,0,0,0,99,0.2,0,0
2023,9,9,3,60,9,25.6,24.5,94.0,101325,0,0,0,0,0,0,0,0,0,0,0,16.3,0,0,9999,77777,9,999999999,0,0,0,99,0.2,0,0
2023,9,9,4,60,9,26.7,25.5,93.0,101325,0,0,0,0,0,0,0,0,0,0,0,10.9,0,0,9999,77777,9,999999999,0,0,0,99,0.2,0,0
2023,9,9,5,60,9,26.2,24.3,89.0,101325,0,0,0,0,0,0,0,0,0,0,0,11.5,0,0,9999,77777,9,999999999,0,0,0,99,0.2,0,0
2023,9,9,6,60,9,26.7,24.4,87.0,101325,0,0,0,0,0,0,0,0,0,0,0,17.7,0,0,9999,77777,9,999999999,0,0,0,99,0.2,0,0
2023,9,9,7,60,9,26.1,24.6,91.0,101325,0,0,0,0,0,0,0,0,0,0,0,6.8,0,0,9999,77777,9,999999999,0,0,0,99,0.2,0,0
2023,9,9,8,60,9,28.2,25.8,87.0,101325,0,0,0,0,0,0,0,0,0,0,0,11.6,0,0,9999,77777,9,999999999,0,0,0,99,0.2,0,0
2023,9,9,9,60,9,28.7,25.3,82.0,101325,0,0,0,0,0,0,0,0,0,0,0,14.6,0,0,9999,77777,9,999999999,0,0,0,99,0.2,0,0
2023,9,9,10,60,9,29.0,25.6,82.0,101325,0,0,0,0,0,0,0,0,0,0,0,14.9,0,0,9999,77777,9,999999999,0,0,0,99,0.2,0,0
2023,9,9,11,60,9,27.9,24.5,82.0,101325,0,0,0,0,0,0,0,0,0,0,0,17.5,0,0,9999,77777,9,999999999,0,0,0,99,0.2,0,0
2023,9,9,12,60,9,27.7,24.9,85.0,101325,0,0,0,0,0,0,0,0,0,0,0,13.4,0,0,9999,77777,9,999999999,0,0,0,99,0.2,0,0
2023,9,9,13,60,9,26.5,24.9,91.0,101325,0,0,0,0,0,0,0,0,0,0,0,7.4,0,0,9999,77777,9,999999999,0,0,0,99,0.2,0,0
2023,9,9,14,60,9,26.5,25.2,93.0,101325,0,0,0,0,0,0,0,0,0,0,0,5.6,0,0,9999,77777,9,999999999,0,0,0,99,0.2,0,0
2023,9,9,15,60,9,26.2,25.5,96.0,101325,0,0,0,0,0,0,0,0,0,0,0,3.6,0,0,9999,77777,9,999999999,0,0,0,99,0.2,0,0
2023,9,9,16,60,9,26.3,25.2,93.0,101325,0,0,0,0,0,0,0,0,0,0,0,4.7,0,0,9999,77777,9,999999999,0,0,0,99,0.2,0,0
2023,9,9,17,60,9,26.5,25.0,91.0,101325,0,0,0,0,0,0,0,0,0,0,0,5.5,0,0,9999,77777,9,999999999,0,0,0,99,0.2,0,0
2023,9,9,18,60,9,26.3,24.6,90.0,101325,0,0,0,0,0,0,0,0,0,0,0,5.8,0,0,9999,77777,9,999999999,0,0,0,99,0.2,0,0
2023,9,9,19,60,9,26.3,24.6,91.0,101325,0,0,0,0,0,0,0,0,0,0,0,8.0,0,0,9999,77777,9,999999999,0,0,0,99,0.2,0,0
2023,9,9,20,60,9,26.6,25.0,91.0,101325,0,0,0,0,0,0,0,0,0,0,0,9.7,0,0,9999,77777,9,999999999,0,0,0,99,0.2,0,0
2023,9,9,21,60,9,26.9,25.0,89.0,101325,0,0,0,0,0,0,0,0,0,0,0,12.3,0,0,9999,77777,9,999999999,0,0,0,99,0.2,0,0
2023,9,9,22,60,9,27.0,25.1,90.0,101325,0,0,0,0,0,0,0,0,0,0,0,14.6,0,0,9999,77777,9,999999999,0,0,0,99,0.2,0,0
2023,9,9,23,60,9,26.6,24.9,91.0,101325,0,0,0,0,0,0,0,0,0,0,0,16.0,0,0,9999,77777,9,999999999,0,0,0,99,0.2,0,0
2023,9,9,24,60,9,26.4,24.6,90.0,101325,0,0,0,0,0,0,0,0,0,0,0,13.6,0,0,9999,77777,9,999999999,0,0,0,99,0.2,0,0
2023,9,10,1,60,9,25.6,24.3,93.0,101325,0,0,0,0,0,0,0,0,0,0,0,8.2,0,0,9999,77777,9,999999999,0,0,0,99,0.2,0,0
2023,9,10,2,60,9,25.9,24.7,93.0,101325,0,0,0,0,0,0,0,0,0,0,0,8.7,0,0,9999,77777,9,999999999,0,0,0,99,0.2,0,0
2023,9,10,3,60,9,26.5,25.0,91.0,101325,0,0,0,0,0,0,0,0,0,0,0,7.4,0,0,9999,77777,9,999999999,0,0,0,99,0.2,0,0
2023,9,10,4,60,9,27.1,24.9,88.0,101325,0,0,0,0,0,0,0,0,0,0,0,11.2,0,0,9999,77777,9,999999999,0,0,0,99,0.2,0,0
2023,9,10,5,60,9,27.4,24.8,86.0,101325,0,0,0,0,0,0,0,0,0,0,0,11.2,0,0,9999,77777,9,999999999,0,0,0,99,0.2,0,0
2023,9,10,6,60,9,28.2,25.0,83.0,101325,0,0,0,0,0,0,0,0,0,0,0,11.3,0,0,9999,77777,9,999999999,0,0,0,99,0.2,0,0
2023,9,10,7,60,9,29.1,25.1,79.0,101325,0,0,0,0,0,0,0,0,0,0,0,13.7,0,0,9999,77777,9,999999999,0,0,0,99,0.2,0,0
2023,9,10,8,60,9,29.0,24.9,79.0,101325,0,0,0,0,0,0,0,0,0,0,0,14.4,0,0,9999,77777,9,999999999,0,0,0,99,0.2,0,0
2023,9,10,9,60,9,28.8,24.7,79.0,101325,0,0,0,0,0,0,0,0,0,0,0,14.8,0,0,9999,77777,9,999999999,0,0,0,99,0.2,0,0
2023,9,10,10,60,9,29.0,25.3,80.0,101325,0,0,0,0,0,0,0,0,0,0,0,16.3,0,0,9999,77777,9,999999999,0,0,0,99,0.2,0,0
2023,9,10,11,60,9,28.8,25.1,80.0,101325,0,0,0,0,0,0,0,0,0,0,0,18.4,0,0,9999,77777,9,999999999,0,0,0,99,0.2,0,0
2023,9,10,12,60,9,28.4,24.8,81.0,101325,0,0,0,0,0,0,0,0,0,0,0,18.1,0,0,9999,77777,9,999999999,0,0,0,99,0.2,0,0
2023,9,10,13,60,9,26.9,24.5,87.0,101325,0,0,0,0,0,0,0,0,0,0,0,9.7,0,0,9999,77777,9,999999999,0,0,0,99,0.2,0,0
2023,9,10,14,60,9,26.7,25.1,91.0,101325,0,0,0,0,0,0,0,0,0,0,0,7.8,0,0,9999,77777,9,999999999,0,0,0,99,0.2,0,0
2023,9,10,15,60,9,26.0,24.3,90.0,101325,0,0,0,0,0,0,0,0,0,0,0,6.5,0,0,9999,77777,9,999999999,0,0,0,99,0.2,0,0
2023,9,10,16,60,9,25.9,24.6,93.0,101325,0,0,0,0,0,0,0,0,0,0,0,3.4,0,0,9999,77777,9,999999999,0,0,0,99,0.2,0,0
2023,9,10,17,60,9,26.0,25.0,95.0,101325,0,0,0,0,0,0,0,0,0,0,0,2.7,0,0,9999,77777,9,999999999,0,0,0,99,0.2,0,0
2023,9,10,18,60,9,26.1,24.8,93.0,101325,0,0,0,0,0,0,0,0,0,0,0,2.8,0,0,9999,77777,9,999999999,0,0,0,99,0.2,0,0
2023,9,10,19,60,9,25.9,24.7,93.0,101325,0,0,0,0,0,0,0,0,0,0,0,3.8,0,0,9999,77777,9,999999999,0,0,0,99,0.2,0,0
2023,9,10,20,60,9,25.7,24.6,93.0,101325,0,0,0,0,0,0,0,0,0,0,0,6.6,0,0,9999,77777,9,999999999,0,0,0,99,0.2,0,0
2023,9,10,21,60,9,25.7,24.6,94.0,101325,0,0,0,0,0,0,0,0,0,0,0,6.9,0,0,9999,77777,9,999999999,0,0,0,99,0.2,0,0
2023,9,10,22,60,9,25.7,24.5,93.0,101325,0,0,0,0,0,0,0,0,0,0,0,7.6,0,0,9999,77777,9,999999999,0,0,0,99,0.2,0,0
2023,9,10,23,60,9,25.8,24.5,93.0,101325,0,0,0,0,0,0,0,0,0,0,0,8.0,0,0,9999,77777,9,999999999,0,0,0,99,0.2,0,0
2023,9,10,24,60,9,25.6,24.3,93.0,101325,0,0,0,0,0,0,0,0,0,0,0,7.7,0,0,9999,77777,9,999999999,0,0,0,99,0.2,0,0
2023,9,11,1,60,9,25.5,24.3,93.0,101325,0,0,0,0,0,0,0,0,0,0,0,8.2,0,0,9999,77777,9,999999999,0,0,0,99,0.2,0,0
2023,9,11,2,60,9,25.0,24.1,94.0,101325,0,0,0,0,0,0,0,0,0,0,0,9.8,0,0,9999,77777,9,999999999,0,0,0,99,0.2,0,0
2023,9,11,3,60,9,25.4,24.1,92.0,101325,0,0,0,0,0,0,0,0,0,0,0,6.9,0,0,9999,77777,9,999999999,0,0,0,99,0.2,0,0
2023,9,11,4,60,9,26.0,23.9,88.0,101325,0,0,0,0,0,0,0,0,0,0,0,11.4,0,0,9999,77777,9,999999999,0,0,0,99,0.2,0,0
2023,9,11,5,60,9,25.4,23.5,89.0,101325,0,0,0,0,0,0,0,0,0,0,0,9.1,0,0,9999,77777,9,999999999,0,0,0,99,0.2,0,0
2023,9,11,6,60,9,26.7,24.3,86.0,101325,0,0,0,0,0,0,0,0,0,0,0,9.2,0,0,9999,77777,9,999999999,0,0,0,99,0.2,0,0
2023,9,11,7,60,9,28.1,25.0,83.0,101325,0,0,0,0,0,0,0,0,0,0,0,9.9,0,0,9999,77777,9,999999999,0,0,0,99,0.2,0,0
2023,9,11,8,60,9,28.7,25.3,82.0,101325,0,0,0,0,0,0,0,0,0,0,0,11.2,0,0,9999,77777,9,999999999,0,0,0,99,0.2,0,0
2023,9,11,9,60,9,28.8,25.1,80.0,101325,0,0,0,0,0,0,0,0,0,0,0,11.7,0,0,9999,77777,9,999999999,0,0,0,99,0.2,0,0
2023,9,11,10,60,9,27.2,23.8,82.0,101325,0,0,0,0,0,0,0,0,0,0,0,14.4,0,0,9999,77777,9,999999999,0,0,0,99,0.2,0,0
2023,9,11,11,60,9,27.4,23.8,81.0,101325,0,0,0,0,0,0,0,0,0,0,0,13.1,0,0,9999,77777,9,999999999,0,0,0,99,0.2,0,0
2023,9,11,12,60,9,27.3,24.2,83.0,101325,0,0,0,0,0,0,0,0,0,0,0,14.0,0,0,9999,77777,9,999999999,0,0,0,99,0.2,0,0
2023,9,11,13,60,9,27.1,24.4,85.0,101325,0,0,0,0,0,0,0,0,0,0,0,11.6,0,0,9999,77777,9,999999999,0,0,0,99,0.2,0,0
2023,9,11,14,60,9,26.9,24.2,85.0,101325,0,0,0,0,0,0,0,0,0,0,0,10.5,0,0,9999,77777,9,999999999,0,0,0,99,0.2,0,0
2023,9,11,15,60,9,26.4,24.0,86.0,101325,0,0,0,0,0,0,0,0,0,0,0,5.0,0,0,9999,77777,9,999999999,0,0,0,99,0.2,0,0
2023,9,11,16,60,9,25.9,23.9,89.0,101325,0,0,0,0,0,0,0,0,0,0,0,5.5,0,0,9999,77777,9,999999999,0,0,0,99,0.2,0,0
2023,9,11,17,60,9,25.9,23.7,87.0,101325,0,0,0,0,0,0,0,0,0,0,0,4.5,0,0,9999,77777,9,999999999,0,0,0,99,0.2,0,0
2023,9,11,18,60,9,25.4,23.8,91.0,101325,0,0,0,0,0,0,0,0,0,0,0,5.8,0,0,9999,77777,9,999999999,0,0,0,99,0.2,0,0
2023,9,11,19,60,9,25.0,23.8,93.0,101325,0,0,0,0,0,0,0,0,0,0,0,6.0,0,0,9999,77777,9,999999999,0,0,0,99,0.2,0,0
2023,9,11,20,60,9,25.2,23.9,93.0,101325,0,0,0,0,0,0,0,0,0,0,0,4.7,0,0,9999,77777,9,999999999,0,0,0,99,0.2,0,0
2023,9,11,21,60,9,24.6,23.8,95.0,101325,0,0,0,0,0,0,0,0,0,0,0,5.3,0,0,9999,77777,9,999999999,0,0,0,99,0.2,0,0
2023,9,11,22,60,9,24.8,24.0,95.0,101325,0,0,0,0,0,0,0,0,0,0,0,4.6,0,0,9999,77777,9,999999999,0,0,0,99,0.2,0,0
2023,9,11,23,60,9,24.9,24.0,94.0,101325,0,0,0,0,0,0,0,0,0,0,0,4.3,0,0,9999,77777,9,999999999,0,0,0,99,0.2,0,0
2023,9,11,24,60,9,24.9,23.8,94.0,101325,0,0,0,0,0,0,0,0,0,0,0,4.7,0,0,9999,77777,9,999999999,0,0,0,99,0.2,0,0
2023,9,12,1,60,9,25.5,23.4,88.0,101325,0,0,0,0,0,0,0,0,0,0,0,5.2,0,0,9999,77777,9,999999999,0,0,0,99,0.2,0,0
2023,9,12,2,60,9,25.4,23.7,90.0,101325,0,0,0,0,0,0,0,0,0,0,0,4.5,0,0,9999,77777,9,999999999,0,0,0,99,0.2,0,0
2023,9,12,3,60,9,26.8,24.0,85.0,101325,0,0,0,0,0,0,0,0,0,0,0,4.7,0,0,9999,77777,9,999999999,0,0,0,99,0.2,0,0
2023,9,12,4,60,9,27.4,24.2,83.0,101325,0,0,0,0,0,0,0,0,0,0,0,7.1,0,0,9999,77777,9,999999999,0,0,0,99,0.2,0,0
2023,9,12,5,60,9,28.5,24.1,77.0,101325,0,0,0,0,0,0,0,0,0,0,0,13.6,0,0,9999,77777,9,999999999,0,0,0,99,0.2,0,0
2023,9,12,6,60,9,28.9,24.4,76.0,101325,0,0,0,0,0,0,0,0,0,0,0,15.7,0,0,9999,77777,9,999999999,0,0,0,99,0.2,0,0
2023,9,12,7,60,9,29.1,24.4,76.0,101325,0,0,0,0,0,0,0,0,0,0,0,16.8,0,0,9999,77777,9,999999999,0,0,0,99,0.2,0,0
2023,9,12,8,60,9,28.9,24.6,78.0,101325,0,0,0,0,0,0,0,0,0,0,0,18.5,0,0,9999,77777,9,999999999,0,0,0,99,0.2,0,0
2023,9,12,9,60,9,28.9,24.8,79.0,101325,0,0,0,0,0,0,0,0,0,0,0,17.7,0,0,9999,77777,9,999999999,0,0,0,99,0.2,0,0
2023,9,12,10,60,9,29.2,24.4,76.0,101325,0,0,0,0,0,0,0,0,0,0,0,18.4,0,0,9999,77777,9,999999999,0,0,0,99,0.2,0,0
2023,9,12,11,60,9,28.9,24.4,77.0,101325,0,0,0,0,0,0,0,0,0,0,0,19.1,0,0,9999,77777,9,999999999,0,0,0,99,0.2,0,0
2023,9,12,12,60,9,28.6,24.4,78.0,101325,0,0,0,0,0,0,0,0,0,0,0,17.4,0,0,9999,77777,9,999999999,0,0,0,99,0.2,0,0
2023,9,12,13,60,9,27.9,24.4,81.0,101325,0,0,0,0,0,0,0,0,0,0,0,13.0,0,0,9999,77777,9,999999999,0,0,0,99,0.2,0,0
2023,9,12,14,60,9,27.2,24.2,83.0,101325,0,0,0,0,0,0,0,0,0,0,0,11.2,0,0,9999,77777,9,999999999,0,0,0,99,0.2,0,0
2023,9,12,15,60,9,26.7,24.1,85.0,101325,0,0,0,0,0,0,0,0,0,0,0,9.8,0,0,9999,77777,9,999999999,0,0,0,99,0.2,0,0
2023,9,12,16,60,9,26.5,24.1,87.0,101325,0,0,0,0,0,0,0,0,0,0,0,8.3,0,0,9999,77777,9,999999999,0,0,0,99,0.2,0,0
2023,9,12,17,60,9,26.3,24.2,88.0,101325,0,0,0,0,0,0,0,0,0,0,0,5.2,0,0,9999,77777,9,999999999,0,0,0,99,0.2,0,0
2023,9,12,18,60,9,25.7,23.7,88.0,101325,0,0,0,0,0,0,0,0,0,0,0,5.6,0,0,9999,77777,9,999999999,0,0,0,99,0.2,0,0
2023,9,12,19,60,9,25.7,23.9,90.0,101325,0,0,0,0,0,0,0,0,0,0,0,6.4,0,0,9999,77777,9,999999999,0,0,0,99,0.2,0,0
2023,9,12,20,60,9,25.5,23.9,91.0,101325,0,0,0,0,0,0,0,0,0,0,0,6.3,0,0,9999,77777,9,999999999,0,0,0,99,0.2,0,0
2023,9,12,21,60,9,25.7,23.9,90.0,101325,0,0,0,0,0,0,0,0,0,0,0,7.5,0,0,9999,77777,9,999999999,0,0,0,99,0.2,0,0
2023,9,12,22,60,9,25.6,23.9,90.0,101325,0,0,0,0,0,0,0,0,0,0,0,7.7,0,0,9999,77777,9,999999999,0,0,0,99,0.2,0,0
2023,9,12,23,60,9,25.6,24.0,91.0,101325,0,0,0,0,0,0,0,0,0,0,0,8.5,0,0,9999,77777,9,999999999,0,0,0,99,0.2,0,0
2023,9,12,24,60,9,25.6,23.8,90.0,101325,0,0,0,0,0,0,0,0,0,0,0,8.9,0,0,9999,77777,9,999999999,0,0,0,99,0.2,0,0
2023,9,13,1,60,9,25.0,23.6,92.0,101325,0,0,0,0,0,0,0,0,0,0,0,7.3,0,0,9999,77777,9,999999999,0,0,0,99,0.2,0,0
2023,9,13,2,60,9,25.6,24.2,92.0,101325,0,0,0,0,0,0,0,0,0,0,0,4.0,0,0,9999,77777,9,999999999,0,0,0,99,0.2,0,0
2023,9,13,3,60,9,25.9,24.4,92.0,101325,0,0,0,0,0,0,0,0,0,0,0,5.6,0,0,9999,77777,9,999999999,0,0,0,99,0.2,0,0
2023,9,13,4,60,9,26.6,24.4,87.0,101325,0,0,0,0,0,0,0,0,0,0,0,3.3,0,0,9999,77777,9,999999999,0,0,0,99,0.2,0,0
2023,9,13,5,60,9,26.8,24.5,87.0,101325,0,0,0,0,0,0,0,0,0,0,0,8.4,0,0,9999,77777,9,999999999,0,0,0,99,0.2,0,0
2023,9,13,6,60,9,28.2,24.8,82.0,101325,0,0,0,0,0,0,0,0,0,0,0,8.4,0,0,9999,77777,9,999999999,0,0,0,99,0.2,0,0
2023,9,13,7,60,9,28.4,24.5,79.0,101325,0,0,0,0,0,0,0,0,0,0,0,10.6,0,0,9999,77777,9,999999999,0,0,0,99,0.2,0,0
2023,9,13,8,60,9,27.7,24.6,83.0,101325,0,0,0,0,0,0,0,0,0,0,0,10.2,0,0,9999,77777,9,999999999,0,0,0,99,0.2,0,0
2023,9,13,9,60,9,28.1,24.4,80.0,101325,0,0,0,0,0,0,0,0,0,0,0,11.6,0,0,9999,77777,9,999999999,0,0,0,99,0.2,0,0
2023,9,13,10,60,9,27.8,23.7,78.0,101325,0,0,0,0,0,0,0,0,0,0,0,12.8,0,0,9999,77777,9,999999999,0,0,0,99,0.2,0,0
2023,9,13,11,60,9,28.1,24.5,81.0,101325,0,0,0,0,0,0,0,0,0,0,0,9.3,0,0,9999,77777,9,999999999,0,0,0,99,0.2,0,0
2023,9,13,12,60,9,27.5,24.0,81.0,101325,0,0,0,0,0,0,0,0,0,0,0,12.1,0,0,9999,77777,9,999999999,0,0,0,99,0.2,0,0
2023,9,13,13,60,9,27.3,24.2,83.0,101325,0,0,0,0,0,0,0,0,0,0,0,9.6,0,0,9999,77777,9,999999999,0,0,0,99,0.2,0,0
2023,9,13,14,60,9,26.8,24.3,86.0,101325,0,0,0,0,0,0,0,0,0,0,0,6.8,0,0,9999,77777,9,999999999,0,0,0,99,0.2,0,0
2023,9,13,15,60,9,25.8,24.0,90.0,101325,0,0,0,0,0,0,0,0,0,0,0,9.9,0,0,9999,77777,9,999999999,0,0,0,99,0.2,0,0
2023,9,13,16,60,9,26.3,24.0,87.0,101325,0,0,0,0,0,0,0,0,0,0,0,2.6,0,0,9999,77777,9,999999999,0,0,0,99,0.2,0,0
2023,9,13,17,60,9,25.6,24.1,91.0,101325,0,0,0,0,0,0,0,0,0,0,0,3.6,0,0,9999,77777,9,999999999,0,0,0,99,0.2,0,0
2023,9,13,18,60,9,25.3,24.1,93.0,101325,0,0,0,0,0,0,0,0,0,0,0,4.7,0,0,9999,77777,9,999999999,0,0,0,99,0.2,0,0
2023,9,13,19,60,9,25.6,24.1,92.0,101325,0,0,0,0,0,0,0,0,0,0,0,4.6,0,0,9999,77777,9,999999999,0,0,0,99,0.2,0,0
2023,9,13,20,60,9,25.6,24.0,91.0,101325,0,0,0,0,0,0,0,0,0,0,0,5.7,0,0,9999,77777,9,999999999,0,0,0,99,0.2,0,0
2023,9,13,21,60,9,25.3,23.9,92.0,101325,0,0,0,0,0,0,0,0,0,0,0,7.8,0,0,9999,77777,9,999999999,0,0,0,99,0.2,0,0
2023,9,13,22,60,9,25.2,23.6,91.0,101325,0,0,0,0,0,0,0,0,0,0,0,5.9,0,0,9999,77777,9,999999999,0,0,0,99,0.2,0,0
2023,9,13,23,60,9,25.0,23.7,93.0,101325,0,0,0,0,0,0,0,0,0,0,0,5.5,0,0,9999,77777,9,999999999,0,0,0,99,0.2,0,0
2023,9,13,24,60,9,25.1,23.6,92.0,101325,0,0,0,0,0,0,0,0,0,0,0,5.6,0,0,9999,77777,9,999999999,0,0,0,99,0.2,0,0
2023,9,14,1,60,9,24.1,23.3,95.0,101325,0,0,0,0,0,0,0,0,0,0,0,2.9,0,0,9999,77777,9,999999999,0,0,0,99,0.2,0,0
2023,9,14,2,60,9,24.5,23.2,92.0,101325,0,0,0,0,0,0,0,0,0,0,0,4.0,0,0,9999,77777,9,999999999,0,0,0,99,0.2,0,0
2023,9,14,3,60,9,25.1,23.9,93.0,101325,0,0,0,0,0,0,0,0,0,0,0,7.5,0,0,9999,77777,9,999999999,0,0,0,99,0.2,0,0
2023,9,14,4,60,9,26.1,24.1,89.0,101325,0,0,0,0,0,0,0,0,0,0,0,9.4,0,0,9999,77777,9,999999999,0,0,0,99,0.2,0,0
2023,9,14,5,60,9,26.3,24.3,89.0,101325,0,0,0,0,0,0,0,0,0,0,0,8.0,0,0,9999,77777,9,999999999,0,0,0,99,0.2,0,0
2023,9,14,6,60,9,27.4,24.6,85.0,101325,0,0,0,0,0,0,0,0,0,0,0,7.6,0,0,9999,77777,9,999999999,0,0,0,99,0.2,0,0
2023,9,14,7,60,9,28.4,24.6,80.0,101325,0,0,0,0,0,0,0,0,0,0,0,7.5,0,0,9999,77777,9,999999999,0,0,0,99,0.2,0,0
2023,9,14,8,60,9,28.8,24.7,79.0,101325,0,0,0,0,0,0,0,0,0,0,0,10.8,0,0,9999,77777,9,999999999,0,0,0,99,0.2,0,0
2023,9,14,9,60,9,28.5,24.7,80.0,101325,0,0,0,0,0,0,0,0,0,0,0,12.1,0,0,9999,77777,9,999999999,0,0,0,99,0.2,0,0
2023,9,14,10,60,9,28.5,24.7,80.0,101325,0,0,0,0,0,0,0,0,0,0,0,13.4,0,0,9999,77777,9,999999999,0,0,0,99,0.2,0,0
2023,9,14,11,60,9,28.7,24.3,77.0,101325,0,0,0,0,0,0,0,0,0,0,0,13.2,0,0,9999,77777,9,999999999,0,0,0,99,0.2,0,0
2023,9,14,12,60,9,28.3,23.9,77.0,101325,0,0,0,0,0,0,0,0,0,0,0,12.9,0,0,9999,77777,9,999999999,0,0,0,99,0.2,0,0
2023,9,14,13,60,9,27.6,23.8,80.0,101325,0,0,0,0,0,0,0,0,0,0,0,10.1,0,0,9999,77777,9,999999999,0,0,0,99,0.2,0,0
2023,9,14,14,60,9,27.0,24.0,84.0,101325,0,0,0,0,0,0,0,0,0,0,0,7.7,0,0,9999,77777,9,999999999,0,0,0,99,0.2,0,0
2023,9,14,15,60,9,26.8,23.9,84.0,101325,0,0,0,0,0,0,0,0,0,0,0,7.0,0,0,9999,77777,9,999999999,0,0,0,99,0.2,0,0
2023,9,14,16,60,9,26.5,23.8,85.0,101325,0,0,0,0,0,0,0,0,0,0,0,6.9,0,0,9999,77777,9,999999999,0,0,0,99,0.2,0,0
2023,9,14,17,60,9,26.5,23.6,84.0,101325,0,0,0,0,0,0,0,0,0,0,0,7.4,0,0,9999,77777,9,999999999,0,0,0,99,0.2,0,0
2023,9,14,18,60,9,26.5,23.5,83.0,101325,0,0,0,0,0,0,0,0,0,0,0,8.2,0,0,9999,77777,9,999999999,0,0,0,99,0.2,0,0
2023,9,14,19,60,9,26.5,23.4,83.0,101325,0,0,0,0,0,0,0,0,0,0,0,7.7,0,0,9999,77777,9,999999999,0,0,0,99,0.2,0,0
2023,9,14,20,60,9,26.1,23.6,86.0,101325,0,0,0,0,0,0,0,0,0,0,0,6.8,0,0,9999,77777,9,999999999,0,0,0,99,0.2,0,0
2023,9,14,21,60,9,25.6,23.7,89.0,101325,0,0,0,0,0,0,0,0,0,0,0,6.0,0,0,9999,77777,9,999999999,0,0,0,99,0.2,0,0
2023,9,14,22,60,9,24.8,23.8,94.0,101325,0,0,0,0,0,0,0,0,0,0,0,3.1,0,0,9999,77777,9,999999999,0,0,0,99,0.2,0,0
2023,9,14,23,60,9,25.1,23.7,92.0,101325,0,0,0,0,0,0,0,0,0,0,0,2.9,0,0,9999,77777,9,999999999,0,0,0,99,0.2,0,0
2023,9,14,24,60,9,25.1,23.7,92.0,101325,0,0,0,0,0,0,0,0,0,0,0,5.0,0,0,9999,77777,9,999999999,0,0,0,99,0.2,0,0
2023,9,15,1,60,9,25.7,23.9,90.0,101325,0,0,0,0,0,0,0,0,0,0,0,2.5,0,0,9999,77777,9,999999999,0,0,0,99,0.2,0,0
2023,9,15,2,60,9,25.5,24.4,94.0,101325,0,0,0,0,0,0,0,0,0,0,0,2.5,0,0,9999,77777,9,999999999,0,0,0,99,0.2,0,0
2023,9,15,3,60,9,25.7,24.6,93.0,101325,0,0,0,0,0,0,0,0,0,0,0,6.3,0,0,9999,77777,9,999999999,0,0,0,99,0.2,0,0
2023,9,15,4,60,9,26.6,24.8,90.0,101325,0,0,0,0,0,0,0,0,0,0,0,6.2,0,0,9999,77777,9,999999999,0,0,0,99,0.2,0,0
2023,9,15,5,60,9,27.6,24.6,83.0,101325,0,0,0,0,0,0,0,0,0,0,0,5.6,0,0,9999,77777,9,999999999,0,0,0,99,0.2,0,0
2023,9,15,6,60,9,28.7,24.4,77.0,101325,0,0,0,0,0,0,0,0,0,0,0,7.3,0,0,9999,77777,9,999999999,0,0,0,99,0.2,0,0
2023,9,15,7,60,9,29.3,24.1,74.0,101325,0,0,0,0,0,0,0,0,0,0,0,10.4,0,0,9999,77777,9,999999999,0,0,0,99,0.2,0,0
2023,9,15,8,60,9,29.3,24.0,73.0,101325,0,0,0,0,0,0,0,0,0,0,0,11.2,0,0,9999,77777,9,999999999,0,0,0,99,0.2,0,0
2023,9,15,9,60,9,28.9,24.0,75.0,101325,0,0,0,0,0,0,0,0,0,0,0,12.5,0,0,9999,77777,9,999999999,0,0,0,99,0.2,0,0
2023,9,15,10,60,9,29.3,23.7,72.0,101325,0,0,0,0,0,0,0,0,0,0,0,14.6,0,0,9999,77777,9,999999999,0,0,0,99,0.2,0,0
2023,9,15,11,60,9,29.2,23.6,72.0,101325,0,0,0,0,0,0,0,0,0,0,0,15.9,0,0,9999,77777,9,999999999,0,0,0,99,0.2,0,0
2023,9,15,12,60,9,28.9,23.4,72.0,101325,0,0,0,0,0,0,0,0,0,0,0,16.6,0,0,9999,77777,9,999999999,0,0,0,99,0.2,0,0
2023,9,15,13,60,9,28.3,23.7,76.0,101325,0,0,0,0,0,0,0,0,0,0,0,12.7,0,0,9999,77777,9,999999999,0,0,0,99,0.2,0,0
2023,9,15,14,60,9,27.4,23.6,80.0,101325,0,0,0,0,0,0,0,0,0,0,0,11.9,0,0,9999,77777,9,999999999,0,0,0,99,0.2,0,0
2023,9,15,15,60,9,27.2,23.6,80.0,101325,0,0,0,0,0,0,0,0,0,0,0,9.9,0,0,9999,77777,9,999999999,0,0,0,99,0.2,0,0
2023,9,15,16,60,9,27.4,23.6,80.0,101325,0,0,0,0,0,0,0,0,0,0,0,10.8,0,0,9999,77777,9,999999999,0,0,0,99,0.2,0,0
2023,9,15,17,60,9,27.2,23.5,80.0,101325,0,0,0,0,0,0,0,0,0,0,0,9.5,0,0,9999,77777,9,999999999,0,0,0,99,0.2,0,0
2023,9,15,18,60,9,27.1,23.5,80.0,101325,0,0,0,0,0,0,0,0,0,0,0,8.1,0,0,9999,77777,9,999999999,0,0,0,99,0.2,0,0
2023,9,15,19,60,9,27.2,23.4,80.0,101325,0,0,0,0,0,0,0,0,0,0,0,11.1,0,0,9999,77777,9,999999999,0,0,0,99,0.2,0,0
2023,9,15,20,60,9,27.1,23.5,80.0,101325,0,0,0,0,0,0,0,0,0,0,0,12.9,0,0,9999,77777,9,999999999,0,0,0,99,0.2,0,0
2023,9,15,21,60,9,27.0,23.5,81.0,101325,0,0,0,0,0,0,0,0,0,0,0,13.2,0,0,9999,77777,9,999999999,0,0,0,99,0.2,0,0
2023,9,15,22,60,9,27.2,23.5,80.0,101325,0,0,0,0,0,0,0,0,0,0,0,12.8,0,0,9999,77777,9,999999999,0,0,0,99,0.2,0,0
2023,9,15,23,60,9,26.7,23.4,82.0,101325,0,0,0,0,0,0,0,0,0,0,0,10.8,0,0,9999,77777,9,999999999,0,0,0,99,0.2,0,0
2023,9,15,24,60,9,25.9,23.5,87.0,101325,0,0,0,0,0,0,0,0,0,0,0,10.5,0,0,9999,77777,9,999999999,0,0,0,99,0.2,0,0
2023,9,16,1,60,9,25.9,23.9,89.0,101325,0,0,0,0,0,0,0,0,0,0,0,11.1,0,0,9999,77777,9,999999999,0,0,0,99,0.2,0,0
2023,9,16,2,60,9,25.1,23.8,93.0,101325,0,0,0,0,0,0,0,0,0,0,0,12.1,0,0,9999,77777,9,999999999,0,0,0,99,0.2,0,0
2023,9,16,3,60,9,25.3,24.0,92.0,101325,0,0,0,0,0,0,0,0,0,0,0,11.9,0,0,9999,77777,9,999999999,0,0,0,99,0.2,0,0
2023,9,16,4,60,9,25.7,24.4,93.0,101325,0,0,0,0,0,0,0,0,0,0,0,9.5,0,0,9999,77777,9,999999999,0,0,0,99,0.2,0,0
2023,9,16,5,60,9,25.4,24.2,93.0,101325,0,0,0,0,0,0,0,0,0,0,0,11.0,0,0,9999,77777,9,999999999,0,0,0,99,0.2,0,0
2023,9,16,6,60,9,26.2,24.6,91.0,101325,0,0,0,0,0,0,0,0,0,0,0,8.3,0,0,9999,77777,9,999999999,0,0,0,99,0.2,0,0
2023,9,16,7,60,9,27.3,25.2,88.0,101325,0,0,0,0,0,0,0,0,0,0,0,12.7,0,0,9999,77777,9,999999999,0,0,0,99,0.2,0,0
2023,9,16,8,60,9,28.1,24.9,83.0,101325,0,0,0,0,0,0,0,0,0,0,0,15.9,0,0,9999,77777,9,999999999,0,0,0,99,0.2,0,0
2023,9,16,9,60,9,28.4,24.3,78.0,101325,0,0,0,0,0,0,0,0,0,0,0,19.8,0,0,9999,77777,9,999999999,0,0,0,99,0.2,0,0
2023,9,16,10,60,9,28.5,24.3,78.0,101325,0,0,0,0,0,0,0,0,0,0,0,19.8,0,0,9999,77777,9,999999999,0,0,0,99,0.2,0,0
2023,9,16,11,60,9,28.3,24.4,79.0,101325,0,0,0,0,0,0,0,0,0,0,0,20.2,0,0,9999,77777,9,999999999,0,0,0,99,0.2,0,0
2023,9,16,12,60,9,28.2,24.3,80.0,101325,0,0,0,0,0,0,0,0,0,0,0,20.0,0,0,9999,77777,9,999999999,0,0,0,99,0.2,0,0
2023,9,16,13,60,9,28.1,24.1,79.0,101325,0,0,0,0,0,0,0,0,0,0,0,18.2,0,0,9999,77777,9,999999999,0,0,0,99,0.2,0,0
2023,9,16,14,60,9,27.5,23.9,81.0,101325,0,0,0,0,0,0,0,0,0,0,0,16.6,0,0,9999,77777,9,999999999,0,0,0,99,0.2,0,0
2023,9,16,15,60,9,27.5,23.5,79.0,101325,0,0,0,0,0,0,0,0,0,0,0,17.9,0,0,9999,77777,9,999999999,0,0,0,99,0.2,0,0
2023,9,16,16,60,9,27.5,23.7,80.0,101325,0,0,0,0,0,0,0,0,0,0,0,18.5,0,0,9999,77777,9,999999999,0,0,0,99,0.2,0,0
2023,9,16,17,60,9,27.5,23.9,81.0,101325,0,0,0,0,0,0,0,0,0,0,0,17.9,0,0,9999,77777,9,999999999,0,0,0,99,0.2,0,0
2023,9,16,18,60,9,27.7,23.9,80.0,101325,0,0,0,0,0,0,0,0,0,0,0,20.6,0,0,9999,77777,9,999999999,0,0,0,99,0.2,0,0
2023,9,16,19,60,9,27.2,24.0,83.0,101325,0,0,0,0,0,0,0,0,0,0,0,19.0,0,0,9999,77777,9,999999999,0,0,0,99,0.2,0,0
2023,9,16,20,60,9,27.3,24.0,82.0,101325,0,0,0,0,0,0,0,0,0,0,0,19.3,0,0,9999,77777,9,999999999,0,0,0,99,0.2,0,0
2023,9,16,21,60,9,27.4,23.9,81.0,101325,0,0,0,0,0,0,0,0,0,0,0,19.5,0,0,9999,77777,9,999999999,0,0,0,99,0.2,0,0
2023,9,16,22,60,9,26.7,23.3,82.0,101325,0,0,0,0,0,0,0,0,0,0,0,19.1,0,0,9999,77777,9,999999999,0,0,0,99,0.2,0,0
2023,9,16,23,60,9,27.1,23.8,82.0,101325,0,0,0,0,0,0,0,0,0,0,0,20.6,0,0,9999,77777,9,999999999,0,0,0,99,0.2,0,0
2023,9,16,24,60,9,27.0,23.4,81.0,101325,0,0,0,0,0,0,0,0,0,0,0,20.8,0,0,9999,77777,9,999999999,0,0,0,99,0.2,0,0
2023,9,17,1,60,9,26.9,23.5,82.0,101325,0,0,0,0,0,0,0,0,0,0,0,17.7,0,0,9999,77777,9,999999999,0,0,0,99,0.2,0,0
2023,9,17,2,60,9,27.0,23.4,80.0,101325,0,0,0,0,0,0,0,0,0,0,0,17.9,0,0,9999,77777,9,999999999,0,0,0,99,0.2,0,0
2023,9,17,3,60,9,26.6,24.0,86.0,101325,0,0,0,0,0,0,0,0,0,0,0,20.3,0,0,9999,77777,9,999999999,0,0,0,99,0.2,0,0
2023,9,17,4,60,9,28.1,23.8,78.0,101325,0,0,0,0,0,0,0,0,0,0,0,19.6,0,0,9999,77777,9,999999999,0,0,0,99,0.2,0,0
2023,9,17,5,60,9,27.0,24.2,85.0,101325,0,0,0,0,0,0,0,0,0,0,0,17.4,0,0,9999,77777,9,999999999,0,0,0,99,0.2,0,0
2023,9,17,6,60,9,28.2,24.3,79.0,101325,0,0,0,0,0,0,0,0,0,0,0,18.7,0,0,9999,77777,9,999999999,0,0,0,99,0.2,0,0
2023,9,17,7,60,9,27.1,24.2,84.0,101325,0,0,0,0,0,0,0,0,0,0,0,16.2,0,0,9999,77777,9,999999999,0,0,0,99,0.2,0,0
2023,9,17,8,60,9,28.2,24.4,80.0,101325,0,0,0,0,0,0,0,0,0,0,0,20.2,0,0,9999,77777,9,999999999,0,0,0,99,0.2,0,0
2023,9,17,9,60,9,29.1,24.3,75.0,101325,0,0,0,0,0,0,0,0,0,0,0,21.7,0,0,9999,77777,9,999999999,0,0,0,99,0.2,0,0
2023,9,17,10,60,9,29.2,24.1,74.0,101325,0,0,0,0,0,0,0,0,0,0,0,23.0,0,0,9999,77777,9,999999999,0,0,0,99,0.2,0,0
2023,9,17,11,60,9,28.4,24.2,78.0,101325,0,0,0,0,0,0,0,0,0,0,0,22.1,0,0,9999,77777,9,999999999,0,0,0,99,0.2,0,0
2023,9,17,12,60,9,28.0,24.0,79.0,101325,0,0,0,0,0,0,0,0,0,0,0,21.4,0,0,9999,77777,9,999999999,0,0,0,99,0.2,0,0
2023,9,17,13,60,9,27.9,23.8,79.0,101325,0,0,0,0,0,0,0,0,0,0,0,20.4,0,0,9999,77777,9,999999999,0,0,0,99,0.2,0,0
2023,9,17,14,60,9,26.4,22.9,81.0,101325,0,0,0,0,0,0,0,0,0,0,0,19.1,0,0,9999,77777,9,999999999,0,0,0,99,0.2,0,0
2023,9,17,15,60,9,26.7,23.7,84.0,101325,0,0,0,0,0,0,0,0,0,0,0,14.6,0,0,9999,77777,9,999999999,0,0,0,99,0.2,0,0
2023,9,17,16,60,9,26.4,23.9,86.0,101325,0,0,0,0,0,0,0,0,0,0,0,15.3,0,0,9999,77777,9,999999999,0,0,0,99,0.2,0,0
2023,9,17,17,60,9,26.3,23.8,86.0,101325,0,0,0,0,0,0,0,0,0,0,0,14.8,0,0,9999,77777,9,999999999,0,0,0,99,0.2,0,0
2023,9,17,18,60,9,26.2,24.0,88.0,101325,0,0,0,0,0,0,0,0,0,0,0,14.0,0,0,9999,77777,9,999999999,0,0,0,99,0.2,0,0
2023,9,17,19,60,9,25.3,24.0,93.0,101325,0,0,0,0,0,0,0,0,0,0,0,10.7,0,0,9999,77777,9,999999999,0,0,0,99,0.2,0,0
2023,9,17,20,60,9,25.0,23.9,94.0,101325,0,0,0,0,0,0,0,0,0,0,0,13.5,0,0,9999,77777,9,999999999,0,0,0,99,0.2,0,0
2023,9,17,21,60,9,25.5,23.9,91.0,101325,0,0,0,0,0,0,0,0,0,0,0,14.8,0,0,9999,77777,9,999999999,0,0,0,99,0.2,0,0
2023,9,17,22,60,9,25.1,23.5,91.0,101325,0,0,0,0,0,0,0,0,0,0,0,16.6,0,0,9999,77777,9,999999999,0,0,0,99,0.2,0,0
2023,9,17,23,60,9,25.8,23.7,88.0,101325,0,0,0,0,0,0,0,0,0,0,0,16.9,0,0,9999,77777,9,999999999,0,0,0,99,0.2,0,0
2023,9,17,24,60,9,24.6,23.4,93.0,101325,0,0,0,0,0,0,0,0,0,0,0,17.1,0,0,9999,77777,9,999999999,0,0,0,99,0.2,0,0
2023,9,18,1,60,9,25.4,24.0,92.0,101325,0,0,0,0,0,0,0,0,0,0,0,10.8,0,0,9999,77777,9,999999999,0,0,0,99,0.2,0,0
2023,9,18,2,60,9,25.7,24.3,92.0,101325,0,0,0,0,0,0,0,0,0,0,0,13.1,0,0,9999,77777,9,999999999,0,0,0,99,0.2,0,0
2023,9,18,3,60,9,25.1,23.9,93.0,101325,0,0,0,0,0,0,0,0,0,0,0,18.9,0,0,9999,77777,9,999999999,0,0,0,99,0.2,0,0
2023,9,18,4,60,9,26.2,24.0,87.0,101325,0,0,0,0,0,0,0,0,0,0,0,14.5,0,0,9999,77777,9,999999999,0,0,0,99,0.2,0,0
2023,9,18,5,60,9,26.5,24.4,88.0,101325,0,0,0,0,0,0,0,0,0,0,0,12.0,0,0,9999,77777,9,999999999,0,0,0,99,0.2,0,0
2023,9,18,6,60,9,26.0,23.5,86.0,101325,0,0,0,0,0,0,0,0,0,0,0,21.9,0,0,9999,77777,9,999999999,0,0,0,99,0.2,0,0
2023,9,18,7,60,9,27.2,24.5,85.0,101325,0,0,0,0,0,0,0,0,0,0,0,13.8,0,0,9999,77777,9,999999999,0,0,0,99,0.2,0,0
2023,9,18,8,60,9,26.9,24.0,84.0,101325,0,0,0,0,0,0,0,0,0,0,0,22.2,0,0,9999,77777,9,999999999,0,0,0,99,0.2,0,0
2023,9,18,9,60,9,26.7,24.2,86.0,101325,0,0,0,0,0,0,0,0,0,0,0,16.6,0,0,9999,77777,9,999999999,0,0,0,99,0.2,0,0
2023,9,18,10,60,9,26.6,24.0,86.0,101325,0,0,0,0,0,0,0,0,0,0,0,17.8,0,0,9999,77777,9,999999999,0,0,0,99,0.2,0,0
2023,9,18,11,60,9,27.0,24.0,84.0,101325,0,0,0,0,0,0,0,0,0,0,0,15.6,0,0,9999,77777,9,999999999,0,0,0,99,0.2,0,0
2023,9,18,12,60,9,25.5,24.6,95.0,101325,0,0,0,0,0,0,0,0,0,0,0,16.4,0,0,9999,77777,9,999999999,0,0,0,99,0.2,0,0
2023,9,18,13,60,9,26.4,24.6,90.0,101325,0,0,0,0,0,0,0,0,0,0,0,13.8,0,0,9999,77777,9,999999999,0,0,0,99,0.2,0,0
2023,9,18,14,60,9,26.1,24.1,89.0,101325,0,0,0,0,0,0,0,0,0,0,0,18.8,0,0,9999,77777,9,999999999,0,0,0,99,0.2,0,0
2023,9,18,15,60,9,25.7,24.2,92.0,101325,0,0,0,0,0,0,0,0,0,0,0,14.0,0,0,9999,77777,9,999999999,0,0,0,99,0.2,0,0
2023,9,18,16,60,9,26.0,24.3,90.0,101325,0,0,0,0,0,0,0,0,0,0,0,17.1,0,0,9999,77777,9,999999999,0,0,0,99,0.2,0,0
2023,9,18,17,60,9,25.4,24.1,93.0,101325,0,0,0,0,0,0,0,0,0,0,0,19.8,0,0,9999,77777,9,999999999,0,0,0,99,0.2,0,0
2023,9,18,18,60,9,25.6,24.2,92.0,101325,0,0,0,0,0,0,0,0,0,0,0,16.8,0,0,9999,77777,9,999999999,0,0,0,99,0.2,0,0
2023,9,18,19,60,9,25.3,24.0,93.0,101325,0,0,0,0,0,0,0,0,0,0,0,18.8,0,0,9999,77777,9,999999999,0,0,0,99,0.2,0,0
2023,9,18,20,60,9,25.6,24.1,91.0,101325,0,0,0,0,0,0,0,0,0,0,0,14.5,0,0,9999,77777,9,999999999,0,0,0,99,0.2,0,0
2023,9,18,21,60,9,25.6,24.0,91.0,101325,0,0,0,0,0,0,0,0,0,0,0,16.6,0,0,9999,77777,9,999999999,0,0,0,99,0.2,0,0
2023,9,18,22,60,9,25.4,23.8,91.0,101325,0,0,0,0,0,0,0,0,0,0,0,15.6,0,0,9999,77777,9,999999999,0,0,0,99,0.2,0,0
2023,9,18,23,60,9,25.2,23.6,91.0,101325,0,0,0,0,0,0,0,0,0,0,0,16.0,0,0,9999,77777,9,999999999,0,0,0,99,0.2,0,0
2023,9,18,24,60,9,25.2,23.8,92.0,101325,0,0,0,0,0,0,0,0,0,0,0,18.7,0,0,9999,77777,9,999999999,0,0,0,99,0.2,0,0
2023,9,19,1,60,9,25.5,23.8,91.0,101325,0,0,0,0,0,0,0,0,0,0,0,17.3,0,0,9999,77777,9,999999999,0,0,0,99,0.2,0,0
2023,9,19,2,60,9,25.4,24.2,93.0,101325,0,0,0,0,0,0,0,0,0,0,0,18.8,0,0,9999,77777,9,999999999,0,0,0,99,0.2,0,0
2023,9,19,3,60,9,25.8,24.3,91.0,101325,0,0,0,0,0,0,0,0,0,0,0,17.9,0,0,9999,77777,9,999999999,0,0,0,99,0.2,0,0
2023,9,19,4,60,9,26.0,24.4,91.0,101325,0,0,0,0,0,0,0,0,0,0,0,16.3,0,0,9999,77777,9,999999999,0,0,0,99,0.2,0,0
2023,9,19,5,60,9,25.9,24.1,90.0,101325,0,0,0,0,0,0,0,0,0,0,0,17.9,0,0,9999,77777,9,999999999,0,0,0,99,0.2,0,0
2023,9,19,6,60,9,27.4,24.6,85.0,101325,0,0,0,0,0,0,0,0,0,0,0,17.1,0,0,9999,77777,9,999999999,0,0,0,99,0.2,0,0
2023,9,19,7,60,9,27.5,24.8,85.0,101325,0,0,0,0,0,0,0,0,0,0,0,16.8,0,0,9999,77777,9,999999999,0,0,0,99,0.2,0,0
2023,9,19,8,60,9,27.7,24.8,84.0,101325,0,0,0,0,0,0,0,0,0,0,0,18.5,0,0,9999,77777,9,999999999,0,0,0,99,0.2,0,0
2023,9,19,9,60,9,27.7,24.1,81.0,101325,0,0,0,0,0,0,0,0,0,0,0,22.3,0,0,9999,77777,9,999999999,0,0,0,99,0.2,0,0
2023,9,19,10,60,9,28.4,24.5,79.0,101325,0,0,0,0,0,0,0,0,0,0,0,20.7,0,0,9999,77777,9,999999999,0,0,0,99,0.2,0,0
2023,9,19,11,60,9,27.8,24.7,83.0,101325,0,0,0,0,0,0,0,0,0,0,0,20.7,0,0,9999,77777,9,999999999,0,0,0,99,0.2,0,0
2023,9,19,12,60,9,27.6,24.3,82.0,101325,0,0,0,0,0,0,0,0,0,0,0,21.4,0,0,9999,77777,9,999999999,0,0,0,99,0.2,0,0
2023,9,19,13,60,9,27.2,24.5,85.0,101325,0,0,0,0,0,0,0,0,0,0,0,15.7,0,0,9999,77777,9,999999999,0,0,0,99,0.2,0,0
2023,9,19,14,60,9,26.4,24.3,88.0,101325,0,0,0,0,0,0,0,0,0,0,0,17.6,0,0,9999,77777,9,999999999,0,0,0,99,0.2,0,0
2023,9,19,15,60,9,25.6,24.3,93.0,101325,0,0,0,0,0,0,0,0,0,0,0,14.2,0,0,9999,77777,9,999999999,0,0,0,99,0.2,0,0
2023,9,19,16,60,9,25.9,24.4,91.0,101325,0,0,0,0,0,0,0,0,0,0,0,18.5,0,0,9999,77777,9,999999999,0,0,0,99,0.2,0,0
2023,9,19,17,60,9,25.9,24.3,91.0,101325,0,0,0,0,0,0,0,0,0,0,0,19.1,0,0,9999,77777,9,999999999,0,0,0,99,0.2,0,0
2023,9,19,18,60,9,26.0,24.3,90.0,101325,0,0,0,0,0,0,0,0,0,0,0,19.5,0,0,9999,77777,9,999999999,0,0,0,99,0.2,0,0
2023,9,19,19,60,9,25.9,24.4,91.0,101325,0,0,0,0,0,0,0,0,0,0,0,18.5,0,0,9999,77777,9,999999999,0,0,0,99,0.2,0,0
2023,9,19,20,60,9,25.9,24.3,91.0,101325,0,0,0,0,0,0,0,0,0,0,0,18.6,0,0,9999,77777,9,999999999,0,0,0,99,0.2,0,0
2023,9,19,21,60,9,25.9,24.2,90.0,101325,0,0,0,0,0,0,0,0,0,0,0,19.4,0,0,9999,77777,9,999999999,0,0,0,99,0.2,0,0
2023,9,19,22,60,9,25.9,24.1,90.0,101325,0,0,0,0,0,0,0,0,0,0,0,18.5,0,0,9999,77777,9,999999999,0,0,0,99,0.2,0,0
2023,9,19,23,60,9,25.5,24.2,93.0,101325,0,0,0,0,0,0,0,0,0,0,0,16.9,0,0,9999,77777,9,999999999,0,0,0,99,0.2,0,0
2023,9,19,24,60,9,25.7,24.4,93.0,101325,0,0,0,0,0,0,0,0,0,0,0,17.5,0,0,9999,77777,9,999999999,0,0,0,99,0.2,0,0
2023,9,20,1,60,9,26.1,24.6,91.0,101325,0,0,0,0,0,0,0,0,0,0,0,14.1,0,0,9999,77777,9,999999999,0,0,0,99,0.2,0,0
2023,9,20,2,60,9,25.7,24.5,93.0,101325,0,0,0,0,0,0,0,0,0,0,0,16.3,0,0,9999,77777,9,999999999,0,0,0,99,0.2,0,0
2023,9,20,3,60,9,26.4,24.7,91.0,101325,0,0,0,0,0,0,0,0,0,0,0,16.1,0,0,9999,77777,9,999999999,0,0,0,99,0.2,0,0
2023,9,20,4,60,9,26.7,24.6,88.0,101325,0,0,0,0,0,0,0,0,0,0,0,17.8,0,0,9999,77777,9,999999999,0,0,0,99,0.2,0,0
2023,9,20,5,60,9,27.6,24.6,84.0,101325,0,0,0,0,0,0,0,0,0,0,0,19.4,0,0,9999,77777,9,999999999,0,0,0,99,0.2,0,0
2023,9,20,6,60,9,28.2,25.0,83.0,101325,0,0,0,0,0,0,0,0,0,0,0,17.9,0,0,9999,77777,9,999999999,0,0,0,99,0.2,0,0
2023,9,20,7,60,9,27.9,24.7,83.0,101325,0,0,0,0,0,0,0,0,0,0,0,20.8,0,0,9999,77777,9,999999999,0,0,0,99,0.2,0,0
2023,9,20,8,60,9,27.8,24.0,80.0,101325,0,0,0,0,0,0,0,0,0,0,0,21.7,0,0,9999,77777,9,999999999,0,0,0,99,0.2,0,0
2023,9,20,9,60,9,27.3,24.7,86.0,101325,0,0,0,0,0,0,0,0,0,0,0,17.3,0,0,9999,77777,9,999999999,0,0,0,99,0.2,0,0
2023,9,20,10,60,9,27.4,24.9,86.0,101325,0,0,0,0,0,0,0,0,0,0,0,18.9,0,0,9999,77777,9,999999999,0,0,0,99,0.2,0,0
2023,9,20,11,60,9,26.4,24.3,88.0,101325,0,0,0,0,0,0,0,0,0,0,0,18.4,0,0,9999,77777,9,999999999,0,0,0,99,0.2,0,0
2023,9,20,12,60,9,26.9,24.3,85.0,101325,0,0,0,0,0,0,0,0,0,0,0,16.3,0,0,9999,77777,9,999999999,0,0,0,99,0.2,0,0
2023,9,20,13,60,9,26.6,24.7,90.0,101325,0,0,0,0,0,0,0,0,0,0,0,14.8,0,0,9999,77777,9,999999999,0,0,0,99,0.2,0,0
2023,9,20,14,60,9,26.4,24.4,89.0,101325,0,0,0,0,0,0,0,0,0,0,0,14.9,0,0,9999,77777,9,999999999,0,0,0,99,0.2,0,0
2023,9,20,15,60,9,26.1,24.4,91.0,101325,0,0,0,0,0,0,0,0,0,0,0,12.1,0,0,9999,77777,9,999999999,0,0,0,99,0.2,0,0
2023,9,20,16,60,9,26.2,24.7,92.0,101325,0,0,0,0,0,0,0,0,0,0,0,11.6,0,0,9999,77777,9,999999999,0,0,0,99,0.2,0,0
2023,9,20,17,60,9,26.0,24.7,93.0,101325,0,0,0,0,0,0,0,0,0,0,0,14.6,0,0,9999,77777,9,999999999,0,0,0,99,0.2,0,0
2023,9,20,18,60,9,25.9,24.6,93.0,101325,0,0,0,0,0,0,0,0,0,0,0,13.0,0,0,9999,77777,9,999999999,0,0,0,99,0.2,0,0
2023,9,20,19,60,9,25.8,24.8,94.0,101325,0,0,0,0,0,0,0,0,0,0,0,10.5,0,0,9999,77777,9,999999999,0,0,0,99,0.2,0,0
2023,9,20,20,60,9,25.8,24.9,95.0,101325,0,0,0,0,0,0,0,0,0,0,0,10.1,0,0,9999,77777,9,999999999,0,0,0,99,0.2,0,0
2023,9,20,21,60,9,25.7,24.9,96.0,101325,0,0,0,0,0,0,0,0,0,0,0,11.5,0,0,9999,77777,9,999999999,0,0,0,99,0.2,0,0
2023,9,20,22,60,9,25.6,24.9,96.0,101325,0,0,0,0,0,0,0,0,0,0,0,11.7,0,0,9999,77777,9,999999999,0,0,0,99,0.2,0,0
2023,9,20,23,60,9,25.7,25.0,96.0,101325,0,0,0,0,0,0,0,0,0,0,0,10.1,0,0,9999,77777,9,999999999,0,0,0,99,0.2,0,0
2023,9,20,24,60,9,26.0,25.0,94.0,101325,0,0,0,0,0,0,0,0,0,0,0,8.4,0,0,9999,77777,9,999999999,0,0,0,99,0.2,0,0
2023,9,21,1,60,9,26.0,24.6,92.0,101325,0,0,0,0,0,0,0,0,0,0,0,6.5,0,0,9999,77777,9,999999999,0,0,0,99,0.2,0,0
2023,9,21,2,60,9,26.0,24.8,93.0,101325,0,0,0,0,0,0,0,0,0,0,0,5.2,0,0,9999,77777,9,999999999,0,0,0,99,0.2,0,0
2023,9,21,3,60,9,26.4,24.5,89.0,101325,0,0,0,0,0,0,0,0,0,0,0,13.2,0,0,9999,77777,9,999999999,0,0,0,99,0.2,0,0
2023,9,21,4,60,9,26.6,24.7,89.0,101325,0,0,0,0,0,0,0,0,0,0,0,9.5,0,0,9999,77777,9,999999999,0,0,0,99,0.2,0,0
2023,9,21,5,60,9,27.5,25.0,87.0,101325,0,0,0,0,0,0,0,0,0,0,0,10.6,0,0,9999,77777,9,999999999,0,0,0,99,0.2,0,0
2023,9,21,6,60,9,28.2,25.2,84.0,101325,0,0,0,0,0,0,0,0,0,0,0,12.1,0,0,9999,77777,9,999999999,0,0,0,99,0.2,0,0
2023,9,21,7,60,9,28.0,25.0,84.0,101325,0,0,0,0,0,0,0,0,0,0,0,16.3,0,0,9999,77777,9,999999999,0,0,0,99,0.2,0,0
2023,9,21,8,60,9,27.0,24.5,86.0,101325,0,0,0,0,0,0,0,0,0,0,0,10.2,0,0,9999,77777,9,999999999,0,0,0,99,0.2,0,0
2023,9,21,9,60,9,28.0,25.0,84.0,101325,0,0,0,0,0,0,0,0,0,0,0,13.5,0,0,9999,77777,9,999999999,0,0,0,99,0.2,0,0
2023,9,21,10,60,9,27.5,24.8,85.0,101325,0,0,0,0,0,0,0,0,0,0,0,13.3,0,0,9999,77777,9,999999999,0,0,0,99,0.2,0,0
2023,9,21,11,60,9,27.2,24.3,84.0,101325,0,0,0,0,0,0,0,0,0,0,0,11.5,0,0,9999,77777,9,999999999,0,0,0,99,0.2,0,0
2023,9,21,12,60,9,26.9,24.5,87.0,101325,0,0,0,0,0,0,0,0,0,0,0,13.3,0,0,9999,77777,9,999999999,0,0,0,99,0.2,0,0
2023,9,21,13,60,9,27.3,24.8,86.0,101325,0,0,0,0,0,0,0,0,0,0,0,11.7,0,0,9999,77777,9,999999999,0,0,0,99,0.2,0,0
2023,9,21,14,60,9,26.8,24.8,89.0,101325,0,0,0,0,0,0,0,0,0,0,0,9.4,0,0,9999,77777,9,999999999,0,0,0,99,0.2,0,0
2023,9,21,15,60,9,26.1,25.1,94.0,101325,0,0,0,0,0,0,0,0,0,0,0,6.3,0,0,9999,77777,9,999999999,0,0,0,99,0.2,0,0
2023,9,21,16,60,9,26.4,25.3,94.0,101325,0,0,0,0,0,0,0,0,0,0,0,6.1,0,0,9999,77777,9,999999999,0,0,0,99,0.2,0,0
2023,9,21,17,60,9,25.5,24.6,94.0,101325,0,0,0,0,0,0,0,0,0,0,0,10.0,0,0,9999,77777,9,999999999,0,0,0,99,0.2,0,0
2023,9,21,18,60,9,25.6,24.2,92.0,101325,0,0,0,0,0,0,0,0,0,0,0,8.1,0,0,9999,77777,9,999999999,0,0,0,99,0.2,0,0
2023,9,21,19,60,9,25.6,24.2,92.0,101325,0,0,0,0,0,0,0,0,0,0,0,8.7,0,0,9999,77777,9,999999999,0,0,0,99,0.2,0,0
2023,9,21,20,60,9,25.9,24.5,92.0,101325,0,0,0,0,0,0,0,0,0,0,0,8.9,0,0,9999,77777,9,999999999,0,0,0,99,0.2,0,0
2023,9,21,21,60,9,26.0,24.6,92.0,101325,0,0,0,0,0,0,0,0,0,0,0,10.5,0,0,9999,77777,9,999999999,0,0,0,99,0.2,0,0
2023,9,21,22,60,9,25.9,24.7,93.0,101325,0,0,0,0,0,0,0,0,0,0,0,8.2,0,0,9999,77777,9,999999999,0,0,0,99,0.2,0,0
2023,9,21,23,60,9,25.9,24.8,94.0,101325,0,0,0,0,0,0,0,0,0,0,0,4.1,0,0,9999,77777,9,999999999,0,0,0,99,0.2,0,0
2023,9,21,24,60,9,25.9,24.7,93.0,101325,0,0,0,0,0,0,0,0,0,0,0,4.3,0,0,9999,77777,9,999999999,0,0,0,99,0.2,0,0
2023,9,22,1,60,9,25.6,24.9,96.0,101325,0,0,0,0,0,0,0,0,0,0,0,5.2,0,0,9999,77777,9,999999999,0,0,0,99,0.2,0,0
2023,9,22,2,60,9,25.8,25.1,96.0,101325,0,0,0,0,0,0,0,0,0,0,0,6.0,0,0,9999,77777,9,999999999,0,0,0,99,0.2,0,0
2023,9,22,3,60,9,26.0,24.9,93.0,101325,0,0,0,0,0,0,0,0,0,0,0,6.8,0,0,9999,77777,9,999999999,0,0,0,99,0.2,0,0
2023,9,22,4,60,9,26.7,24.6,88.0,101325,0,0,0,0,0,0,0,0,0,0,0,7.2,0,0,9999,77777,9,999999999,0,0,0,99,0.2,0,0
2023,9,22,5,60,9,26.7,24.7,89.0,101325,0,0,0,0,0,0,0,0,0,0,0,6.6,0,0,9999,77777,9,999999999,0,0,0,99,0.2,0,0
2023,9,22,6,60,9,27.0,24.7,87.0,101325,0,0,0,0,0,0,0,0,0,0,0,7.9,0,0,9999,77777,9,999999999,0,0,0,99,0.2,0,0
2023,9,22,7,60,9,27.6,24.9,85.0,101325,0,0,0,0,0,0,0,0,0,0,0,7.6,0,0,9999,77777,9,999999999,0,0,0,99,0.2,0,0
2023,9,22,8,60,9,27.6,25.1,86.0,101325,0,0,0,0,0,0,0,0,0,0,0,8.3,0,0,9999,77777,9,999999999,0,0,0,99,0.2,0,0
2023,9,22,9,60,9,28.1,25.1,84.0,101325,0,0,0,0,0,0,0,0,0,0,0,9.3,0,0,9999,77777,9,999999999,0,0,0,99,0.2,0,0
2023,9,22,10,60,9,27.9,25.3,86.0,101325,0,0,0,0,0,0,0,0,0,0,0,10.4,0,0,9999,77777,9,999999999,0,0,0,99,0.2,0,0
2023,9,22,11,60,9,28.0,25.3,85.0,101325,0,0,0,0,0,0,0,0,0,0,0,8.1,0,0,9999,77777,9,999999999,0,0,0,99,0.2,0,0
2023,9,22,12,60,9,27.7,25.0,85.0,101325,0,0,0,0,0,0,0,0,0,0,0,7.1,0,0,9999,77777,9,999999999,0,0,0,99,0.2,0,0
2023,9,22,13,60,9,27.5,25.5,89.0,101325,0,0,0,0,0,0,0,0,0,0,0,6.3,0,0,9999,77777,9,999999999,0,0,0,99,0.2,0,0
2023,9,22,14,60,9,26.7,25.2,91.0,101325,0,0,0,0,0,0,0,0,0,0,0,4.9,0,0,9999,77777,9,999999999,0,0,0,99,0.2,0,0
2023,9,22,15,60,9,25.3,24.7,96.0,101325,0,0,0,0,0,0,0,0,0,0,0,10.4,0,0,9999,77777,9,999999999,0,0,0,99,0.2,0,0
2023,9,22,16,60,9,25.0,24.5,97.0,101325,0,0,0,0,0,0,0,0,0,0,0,11.5,0,0,9999,77777,9,999999999,0,0,0,99,0.2,0,0
2023,9,22,17,60,9,25.0,24.2,96.0,101325,0,0,0,0,0,0,0,0,0,0,0,8.6,0,0,9999,77777,9,999999999,0,0,0,99,0.2,0,0
2023,9,22,18,60,9,24.9,24.0,94.0,101325,0,0,0,0,0,0,0,0,0,0,0,7.5,0,0,9999,77777,9,999999999,0,0,0,99,0.2,0,0
2023,9,22,19,60,9,25.0,23.9,94.0,101325,0,0,0,0,0,0,0,0,0,0,0,6.6,0,0,9999,77777,9,999999999,0,0,0,99,0.2,0,0
2023,9,22,20,60,9,25.2,24.1,94.0,101325,0,0,0,0,0,0,0,0,0,0,0,5.5,0,0,9999,77777,9,999999999,0,0,0,99,0.2,0,0
2023,9,22,21,60,9,25.3,24.3,94.0,101325,0,0,0,0,0,0,0,0,0,0,0,6.8,0,0,9999,77777,9,999999999,0,0,0,99,0.2,0,0
2023,9,22,22,60,9,25.5,24.5,94.0,101325,0,0,0,0,0,0,0,0,0,0,0,8.3,0,0,9999,77777,9,999999999,0,0,0,99,0.2,0,0
2023,9,22,23,60,9,25.2,24.3,94.0,101325,0,0,0,0,0,0,0,0,0,0,0,4.7,0,0,9999,77777,9,999999999,0,0,0,99,0.2,0,0
2023,9,22,24,60,9,25.4,24.2,93.0,101325,0,0,0,0,0,0,0,0,0,0,0,6.3,0,0,9999,77777,9,999999999,0,0,0,99,0.2,0,0
2023,9,23,1,60,9,26.0,23.8,88.0,101325,0,0,0,0,0,0,0,0,0,0,0,2.3,0,0,9999,77777,9,999999999,0,0,0,99,0.2,0,0
2023,9,23,2,60,9,25.6,24.4,93.0,101325,0,0,0,0,0,0,0,0,0,0,0,2.7,0,0,9999,77777,9,999999999,0,0,0,99,0.2,0,0
2023,9,23,3,60,9,25.6,24.6,94.0,101325,0,0,0,0,0,0,0,0,0,0,0,6.1,0,0,9999,77777,9,999999999,0,0,0,99,0.2,0,0
2023,9,23,4,60,9,26.3,24.6,91.0,101325,0,0,0,0,0,0,0,0,0,0,0,7.0,0,0,9999,77777,9,999999999,0,0,0,99,0.2,0,0
2023,9,23,5,60,9,27.1,24.8,87.0,101325,0,0,0,0,0,0,0,0,0,0,0,5.7,0,0,9999,77777,9,999999999,0,0,0,99,0.2,0,0
2023,9,23,6,60,9,28.1,25.4,85.0,101325,0,0,0,0,0,0,0,0,0,0,0,5.4,0,0,9999,77777,9,999999999,0,0,0,99,0.2,0,0
2023,9,23,7,60,9,28.6,25.3,82.0,101325,0,0,0,0,0,0,0,0,0,0,0,7.6,0,0,9999,77777,9,999999999,0,0,0,99,0.2,0,0
2023,9,23,8,60,9,26.8,24.8,89.0,101325,0,0,0,0,0,0,0,0,0,0,0,13.2,0,0,9999,77777,9,999999999,0,0,0,99,0.2,0,0
2023,9,23,9,60,9,26.0,24.5,91.0,101325,0,0,0,0,0,0,0,0,0,0,0,16.0,0,0,9999,77777,9,999999999,0,0,0,99,0.2,0,0
2023,9,23,10,60,9,26.3,24.7,91.0,101325,0,0,0,0,0,0,0,0,0,0,0,12.9,0,0,9999,77777,9,999999999,0,0,0,99,0.2,0,0
2023,9,23,11,60,9,26.0,24.0,89.0,101325,0,0,0,0,0,0,0,0,0,0,0,12.1,0,0,9999,77777,9,999999999,0,0,0,99,0.2,0,0
2023,9,23,12,60,9,26.4,24.7,91.0,101325,0,0,0,0,0,0,0,0,0,0,0,8.4,0,0,9999,77777,9,999999999,0,0,0,99,0.2,0,0
2023,9,23,13,60,9,26.3,24.7,91.0,101325,0,0,0,0,0,0,0,0,0,0,0,5.1,0,0,9999,77777,9,999999999,0,0,0,99,0.2,0,0
2023,9,23,14,60,9,25.6,24.9,96.0,101325,0,0,0,0,0,0,0,0,0,0,0,2.5,0,0,9999,77777,9,999999999,0,0,0,99,0.2,0,0
2023,9,23,15,60,9,25.9,24.6,93.0,101325,0,0,0,0,0,0,0,0,0,0,0,1.8,0,0,9999,77777,9,999999999,0,0,0,99,0.2,0,0
2023,9,23,16,60,9,25.6,24.7,95.0,101325,0,0,0,0,0,0,0,0,0,0,0,2.9,0,0,9999,77777,9,999999999,0,0,0,99,0.2,0,0
2023,9,23,17,60,9,26.2,24.4,90.0,101325,0,0,0,0,0,0,0,0,0,0,0,2.2,0,0,9999,77777,9,999999999,0,0,0,99,0.2,0,0
2023,9,23,18,60,9,26.0,24.4,91.0,101325,0,0,0,0,0,0,0,0,0,0,0,0.4,0,0,9999,77777,9,999999999,0,0,0,99,0.2,0,0
2023,9,23,19,60,9,25.5,24.6,95.0,101325,0,0,0,0,0,0,0,0,0,0,0,3.2,0,0,9999,77777,9,999999999,0,0,0,99,0.2,0,0
2023,9,23,20,60,9,25.2,24.6,96.0,101325,0,0,0,0,0,0,0,0,0,0,0,3.6,0,0,9999,77777,9,999999999,0,0,0,99,0.2,0,0
2023,9,23,21,60,9,25.2,24.6,96.0,101325,0,0,0,0,0,0,0,0,0,0,0,3.2,0,0,9999,77777,9,999999999,0,0,0,99,0.2,0,0
2023,9,23,22,60,9,25.1,24.6,97.0,101325,0,0,0,0,0,0,0,0,0,0,0,3.2,0,0,9999,77777,9,999999999,0,0,0,99,0.2,0,0
2023,9,23,23,60,9,24.8,24.2,96.0,101325,0,0,0,0,0,0,0,0,0,0,0,3.1,0,0,9999,77777,9,999999999,0,0,0,99,0.2,0,0
2023,9,23,24,60,9,24.4,23.6,95.0,101325,0,0,0,0,0,0,0,0,0,0,0,7.2,0,0,9999,77777,9,999999999,0,0,0,99,0.2,0,0
2023,9,24,1,60,9,25.2,24.1,93.0,101325,0,0,0,0,0,0,0,0,0,0,0,3.9,0,0,9999,77777,9,999999999,0,0,0,99,0.2,0,0
2023,9,24,2,60,9,25.4,24.4,94.0,101325,0,0,0,0,0,0,0,0,0,0,0,1.1,0,0,9999,77777,9,999999999,0,0,0,99,0.2,0,0
2023,9,24,3,60,9,25.3,24.3,94.0,101325,0,0,0,0,0,0,0,0,0,0,0,6.5,0,0,9999,77777,9,999999999,0,0,0,99,0.2,0,0
2023,9,24,4,60,9,25.6,24.4,93.0,101325,0,0,0,0,0,0,0,0,0,0,0,8.9,0,0,9999,77777,9,999999999,0,0,0,99,0.2,0,0
2023,9,24,5,60,9,26.7,24.4,87.0,101325,0,0,0,0,0,0,0,0,0,0,0,8.6,0,0,9999,77777,9,999999999,0,0,0,99,0.2,0,0
2023,9,24,6,60,9,27.2,24.7,86.0,101325,0,0,0,0,0,0,0,0,0,0,0,6.6,0,0,9999,77777,9,999999999,0,0,0,99,0.2,0,0
2023,9,24,7,60,9,27.5,24.7,85.0,101325,0,0,0,0,0,0,0,0,0,0,0,8.6,0,0,9999,77777,9,999999999,0,0,0,99,0.2,0,0
2023,9,24,8,60,9,28.2,24.9,83.0,101325,0,0,0,0,0,0,0,0,0,0,0,9.2,0,0,9999,77777,9,999999999,0,0,0,99,0.2,0,0
2023,9,24,9,60,9,28.0,25.0,84.0,101325,0,0,0,0,0,0,0,0,0,0,0,11.4,0,0,9999,77777,9,999999999,0,0,0,99,0.2,0,0
2023,9,24,10,60,9,27.9,24.9,84.0,101325,0,0,0,0,0,0,0,0,0,0,0,10.7,0,0,9999,77777,9,999999999,0,0,0,99,0.2,0,0
2023,9,24,11,60,9,27.5,24.4,83.0,101325,0,0,0,0,0,0,0,0,0,0,0,10.3,0,0,9999,77777,9,999999999,0,0,0,99,0.2,0,0
2023,9,24,12,60,9,27.4,24.0,82.0,101325,0,0,0,0,0,0,0,0,0,0,0,9.4,0,0,9999,77777,9,999999999,0,0,0,99,0.2,0,0
2023,9,24,13,60,9,26.8,24.3,86.0,101325,0,0,0,0,0,0,0,0,0,0,0,10.5,0,0,9999,77777,9,999999999,0,0,0,99,0.2,0,0
2023,9,24,14,60,9,26.6,24.4,88.0,101325,0,0,0,0,0,0,0,0,0,0,0,9.5,0,0,9999,77777,9,999999999,0,0,0,99,0.2,0,0
2023,9,24,15,60,9,26.3,24.4,89.0,101325,0,0,0,0,0,0,0,0,0,0,0,6.5,0,0,9999,77777,9,999999999,0,0,0,99,0.2,0,0
2023,9,24,16,60,9,26.0,24.5,91.0,101325,0,0,0,0,0,0,0,0,0,0,0,4.2,0,0,9999,77777,9,999999999,0,0,0,99,0.2,0,0
2023,9,24,17,60,9,25.8,24.5,92.0,101325,0,0,0,0,0,0,0,0,0,0,0,4.6,0,0,9999,77777,9,999999999,0,0,0,99,0.2,0,0
2023,9,24,18,60,9,25.5,24.5,94.0,101325,0,0,0,0,0,0,0,0,0,0,0,4.7,0,0,9999,77777,9,999999999,0,0,0,99,0.2,0,0
2023,9,24,19,60,9,25.7,24.6,93.0,101325,0,0,0,0,0,0,0,0,0,0,0,3.3,0,0,9999,77777,9,999999999,0,0,0,99,0.2,0,0
2023,9,24,20,60,9,25.9,24.4,91.0,101325,0,0,0,0,0,0,0,0,0,0,0,2.4,0,0,9999,77777,9,999999999,0,0,0,99,0.2,0,0
2023,9,24,21,60,9,25.6,24.5,93.0,101325,0,0,0,0,0,0,0,0,0,0,0,3.4,0,0,9999,77777,9,999999999,0,0,0,99,0.2,0,0
2023,9,24,22,60,9,25.3,24.1,93.0,101325,0,0,0,0,0,0,0,0,0,0,0,3.8,0,0,9999,77777,9,999999999,0,0,0,99,0.2,0,0
2023,9,24,23,60,9,25.1,24.3,96.0,101325,0,0,0,0,0,0,0,0,0,0,0,1.3,0,0,9999,77777,9,999999999,0,0,0,99,0.2,0,0
2023,9,24,24,60,9,24.4,24.1,98.0,101325,0,0,0,0,0,0,0,0,0,0,0,2.6,0,0,9999,77777,9,999999999,0,0,0,99,0.2,0,0
2023,9,25,1,60,9,25.4,24.2,93.0,101325,0,0,0,0,0,0,0,0,0,0,0,1.5,0,0,9999,77777,9,999999999,0,0,0,99,0.2,0,0
2023,9,25,2,60,9,25.2,24.4,96.0,101325,0,0,0,0,0,0,0,0,0,0,0,1.5,0,0,9999,77777,9,999999999,0,0,0,99,0.2,0,0
2023,9,25,3,60,9,25.8,24.5,93.0,101325,0,0,0,0,0,0,0,0,0,0,0,4.8,0,0,9999,77777,9,999999999,0,0,0,99,0.2,0,0
2023,9,25,4,60,9,26.6,24.5,88.0,101325,0,0,0,0,0,0,0,0,0,0,0,7.7,0,0,9999,77777,9,999999999,0,0,0,99,0.2,0,0
2023,9,25,5,60,9,26.2,24.2,89.0,101325,0,0,0,0,0,0,0,0,0,0,0,4.9,0,0,9999,77777,9,999999999,0,0,0,99,0.2,0,0
2023,9,25,6,60,9,27.3,24.5,84.0,101325,0,0,0,0,0,0,0,0,0,0,0,7.9,0,0,9999,77777,9,999999999,0,0,0,99,0.2,0,0
2023,9,25,7,60,9,27.9,24.5,82.0,101325,0,0,0,0,0,0,0,0,0,0,0,12.2,0,0,9999,77777,9,999999999,0,0,0,99,0.2,0,0
2023,9,25,8,60,9,28.0,24.7,82.0,101325,0,0,0,0,0,0,0,0,0,0,0,11.9,0,0,9999,77777,9,999999999,0,0,0,99,0.2,0,0
2023,9,25,9,60,9,28.4,24.6,80.0,101325,0,0,0,0,0,0,0,0,0,0,0,11.7,0,0,9999,77777,9,999999999,0,0,0,99,0.2,0,0
2023,9,25,10,60,9,28.2,24.4,80.0,101325,0,0,0,0,0,0,0,0,0,0,0,13.4,0,0,9999,77777,9,999999999,0,0,0,99,0.2,0,0
2023,9,25,11,60,9,28.1,24.2,80.0,101325,0,0,0,0,0,0,0,0,0,0,0,13.7,0,0,9999,77777,9,999999999,0,0,0,99,0.2,0,0
2023,9,25,12,60,9,27.4,23.8,81.0,101325,0,0,0,0,0,0,0,0,0,0,0,15.0,0,0,9999,77777,9,999999999,0,0,0,99,0.2,0,0
2023,9,25,13,60,9,27.2,24.1,83.0,101325,0,0,0,0,0,0,0,0,0,0,0,13.3,0,0,9999,77777,9,999999999,0,0,0,99,0.2,0,0
2023,9,25,14,60,9,26.8,24.2,86.0,101325,0,0,0,0,0,0,0,0,0,0,0,6.9,0,0,9999,77777,9,999999999,0,0,0,99,0.2,0,0
2023,9,25,15,60,9,26.1,24.0,88.0,101325,0,0,0,0,0,0,0,0,0,0,0,5.6,0,0,9999,77777,9,999999999,0,0,0,99,0.2,0,0
2023,9,25,16,60,9,25.8,24.2,91.0,101325,0,0,0,0,0,0,0,0,0,0,0,2.9,0,0,9999,77777,9,999999999,0,0,0,99,0.2,0,0
2023,9,25,17,60,9,25.3,24.4,95.0,101325,0,0,0,0,0,0,0,0,0,0,0,2.5,0,0,9999,77777,9,999999999,0,0,0,99,0.2,0,0
2023,9,25,18,60,9,25.2,24.4,95.0,101325,0,0,0,0,0,0,0,0,0,0,0,5.5,0,0,9999,77777,9,999999999,0,0,0,99,0.2,0,0
2023,9,25,19,60,9,25.0,24.3,96.0,101325,0,0,0,0,0,0,0,0,0,0,0,5.6,0,0,9999,77777,9,999999999,0,0,0,99,0.2,0,0
2023,9,25,20,60,9,24.7,24.2,97.0,101325,0,0,0,0,0,0,0,0,0,0,0,3.4,0,0,9999,77777,9,999999999,0,0,0,99,0.2,0,0
2023,9,25,21,60,9,24.6,24.1,97.0,101325,0,0,0,0,0,0,0,0,0,0,0,4.0,0,0,9999,77777,9,999999999,0,0,0,99,0.2,0,0
2023,9,25,22,60,9,24.5,23.9,97.0,101325,0,0,0,0,0,0,0,0,0,0,0,5.4,0,0,9999,77777,9,999999999,0,0,0,99,0.2,0,0
2023,9,25,23,60,9,24.5,23.8,96.0,101325,0,0,0,0,0,0,0,0,0,0,0,5.3,0,0,9999,77777,9,999999999,0,0,0,99,0.2,0,0
2023,9,25,24,60,9,24.2,23.6,96.0,101325,0,0,0,0,0,0,0,0,0,0,0,3.5,0,0,9999,77777,9,999999999,0,0,0,99,0.2,0,0
2023,9,26,1,60,9,24.9,24.4,97.0,101325,0,0,0,0,0,0,0,0,0,0,0,2.5,0,0,9999,77777,9,999999999,0,0,0,99,0.2,0,0
2023,9,26,2,60,9,25.4,24.1,92.0,101325,0,0,0,0,0,0,0,0,0,0,0,0.8,0,0,9999,77777,9,999999999,0,0,0,99,0.2,0,0
2023,9,26,3,60,9,25.8,24.4,92.0,101325,0,0,0,0,0,0,0,0,0,0,0,4.3,0,0,9999,77777,9,999999999,0,0,0,99,0.2,0,0
2023,9,26,4,60,9,26.7,24.4,87.0,101325,0,0,0,0,0,0,0,0,0,0,0,5.4,0,0,9999,77777,9,999999999,0,0,0,99,0.2,0,0
2023,9,26,5,60,9,27.7,24.8,84.0,101325,0,0,0,0,0,0,0,0,0,0,0,5.9,0,0,9999,77777,9,999999999,0,0,0,99,0.2,0,0
2023,9,26,6,60,9,28.0,25.1,85.0,101325,0,0,0,0,0,0,0,0,0,0,0,6.6,0,0,9999,77777,9,999999999,0,0,0,99,0.2,0,0
2023,9,26,7,60,9,28.5,25.2,82.0,101325,0,0,0,0,0,0,0,0,0,0,0,8.1,0,0,9999,77777,9,999999999,0,0,0,99,0.2,0,0
2023,9,26,8,60,9,28.7,25.1,81.0,101325,0,0,0,0,0,0,0,0,0,0,0,10.4,0,0,9999,77777,9,999999999,0,0,0,99,0.2,0,0
2023,9,26,9,60,9,29.1,25.0,79.0,101325,0,0,0,0,0,0,0,0,0,0,0,12.7,0,0,9999,77777,9,999999999,0,0,0,99,0.2,0,0
2023,9,26,10,60,9,28.4,25.0,82.0,101325,0,0,0,0,0,0,0,0,0,0,0,12.2,0,0,9999,77777,9,999999999,0,0,0,99,0.2,0,0
2023,9,26,11,60,9,28.8,24.6,78.0,101325,0,0,0,0,0,0,0,0,0,0,0,13.4,0,0,9999,77777,9,999999999,0,0,0,99,0.2,0,0
2023,9,26,12,60,9,28.4,24.3,79.0,101325,0,0,0,0,0,0,0,0,0,0,0,10.9,0,0,9999,77777,9,999999999,0,0,0,99,0.2,0,0
2023,9,26,13,60,9,28.5,25.0,81.0,101325,0,0,0,0,0,0,0,0,0,0,0,9.7,0,0,9999,77777,9,999999999,0,0,0,99,0.2,0,0
2023,9,26,14,60,9,26.1,24.3,90.0,101325,0,0,0,0,0,0,0,0,0,0,0,4.7,0,0,9999,77777,9,999999999,0,0,0,99,0.2,0,0
2023,9,26,15,60,9,25.7,24.2,91.0,101325,0,0,0,0,0,0,0,0,0,0,0,7.4,0,0,9999,77777,9,999999999,0,0,0,99,0.2,0,0
2023,9,26,16,60,9,25.5,24.3,93.0,101325,0,0,0,0,0,0,0,0,0,0,0,5.4,0,0,9999,77777,9,999999999,0,0,0,99,0.2,0,0
2023,9,26,17,60,9,25.2,24.4,95.0,101325,0,0,0,0,0,0,0,0,0,0,0,2.9,0,0,9999,77777,9,999999999,0,0,0,99,0.2,0,0
2023,9,26,18,60,9,25.2,24.4,96.0,101325,0,0,0,0,0,0,0,0,0,0,0,2.5,0,0,9999,77777,9,999999999,0,0,0,99,0.2,0,0
2023,9,26,19,60,9,24.9,24.2,96.0,101325,0,0,0,0,0,0,0,0,0,0,0,3.9,0,0,9999,77777,9,999999999,0,0,0,99,0.2,0,0
2023,9,26,20,60,9,25.2,24.1,94.0,101325,0,0,0,0,0,0,0,0,0,0,0,4.0,0,0,9999,77777,9,999999999,0,0,0,99,0.2,0,0
2023,9,26,21,60,9,25.7,24.2,92.0,101325,0,0,0,0,0,0,0,0,0,0,0,2.9,0,0,9999,77777,9,999999999,0,0,0,99,0.2,0,0
2023,9,26,22,60,9,25.3,24.5,96.0,101325,0,0,0,0,0,0,0,0,0,0,0,2.5,0,0,9999,77777,9,999999999,0,0,0,99,0.2,0,0
2023,9,26,23,60,9,24.7,23.8,94.0,101325,0,0,0,0,0,0,0,0,0,0,0,3.3,0,0,9999,77777,9,999999999,0,0,0,99,0.2,0,0
2023,9,26,24,60,9,24.6,23.8,96.0,101325,0,0,0,0,0,0,0,0,0,0,0,0.5,0,0,9999,77777,9,999999999,0,0,0,99,0.2,0,0
2023,9,27,1,60,9,25.2,24.3,95.0,101325,0,0,0,0,0,0,0,0,0,0,0,4.4,0,0,9999,77777,9,999999999,0,0,0,99,0.2,0,0
2023,9,27,2,60,9,24.4,24.0,98.0,101325,0,0,0,0,0,0,0,0,0,0,0,9.8,0,0,9999,77777,9,999999999,0,0,0,99,0.2,0,0
2023,9,27,3,60,9,24.2,23.6,96.0,101325,0,0,0,0,0,0,0,0,0,0,0,8.8,0,0,9999,77777,9,999999999,0,0,0,99,0.2,0,0
2023,9,27,4,60,9,24.9,24.0,94.0,101325,0,0,0,0,0,0,0,0,0,0,0,4.5,0,0,9999,77777,9,999999999,0,0,0,99,0.2,0,0
2023,9,27,5,60,9,26.2,24.5,91.0,101325,0,0,0,0,0,0,0,0,0,0,0,3.9,0,0,9999,77777,9,999999999,0,0,0,99,0.2,0,0
2023,9,27,6,60,9,28.4,25.2,83.0,101325,0,0,0,0,0,0,0,0,0,0,0,3.4,0,0,9999,77777,9,999999999,0,0,0,99,0.2,0,0
2023,9,27,7,60,9,29.2,25.7,81.0,101325,0,0,0,0,0,0,0,0,0,0,0,10.9,0,0,9999,77777,9,999999999,0,0,0,99,0.2,0,0
2023,9,27,8,60,9,27.1,24.7,87.0,101325,0,0,0,0,0,0,0,0,0,0,0,9.6,0,0,9999,77777,9,999999999,0,0,0,99,0.2,0,0
2023,9,27,9,60,9,28.1,24.8,82.0,101325,0,0,0,0,0,0,0,0,0,0,0,17.0,0,0,9999,77777,9,999999999,0,0,0,99,0.2,0,0
2023,9,27,10,60,9,28.3,25.2,83.0,101325,0,0,0,0,0,0,0,0,0,0,0,15.1,0,0,9999,77777,9,999999999,0,0,0,99,0.2,0,0
2023,9,27,11,60,9,28.2,25.2,84.0,101325,0,0,0,0,0,0,0,0,0,0,0,12.2,0,0,9999,77777,9,999999999,0,0,0,99,0.2,0,0
2023,9,27,12,60,9,26.6,25.1,91.0,101325,0,0,0,0,0,0,0,0,0,0,0,11.9,0,0,9999,77777,9,999999999,0,0,0,99,0.2,0,0
2023,9,27,13,60,9,26.4,24.8,91.0,101325,0,0,0,0,0,0,0,0,0,0,0,7.3,0,0,9999,77777,9,999999999,0,0,0,99,0.2,0,0
2023,9,27,14,60,9,26.1,24.9,93.0,101325,0,0,0,0,0,0,0,0,0,0,0,6.0,0,0,9999,77777,9,999999999,0,0,0,99,0.2,0,0
2023,9,27,15,60,9,25.8,24.7,94.0,101325,0,0,0,0,0,0,0,0,0,0,0,5.8,0,0,9999,77777,9,999999999,0,0,0,99,0.2,0,0
2023,9,27,16,60,9,25.6,24.6,94.0,101325,0,0,0,0,0,0,0,0,0,0,0,5.7,0,0,9999,77777,9,999999999,0,0,0,99,0.2,0,0
2023,9,27,17,60,9,25.3,24.6,96.0,101325,0,0,0,0,0,0,0,0,0,0,0,4.0,0,0,9999,77777,9,999999999,0,0,0,99,0.2,0,0
2023,9,27,18,60,9,25.5,24.4,93.0,101325,0,0,0,0,0,0,0,0,0,0,0,6.9,0,0,9999,77777,9,999999999,0,0,0,99,0.2,0,0
2023,9,27,19,60,9,25.4,24.3,94.0,101325,0,0,0,0,0,0,0,0,0,0,0,5.0,0,0,9999,77777,9,999999999,0,0,0,99,0.2,0,0
2023,9,27,20,60,9,25.3,24.2,94.0,101325,0,0,0,0,0,0,0,0,0,0,0,3.8,0,0,9999,77777,9,999999999,0,0,0,99,0.2,0,0
2023,9,27,21,60,9,24.7,24.0,96.0,101325,0,0,0,0,0,0,0,0,0,0,0,4.0,0,0,9999,77777,9,999999999,0,0,0,99,0.2,0,0
2023,9,27,22,60,9,24.6,23.9,96.0,101325,0,0,0,0,0,0,0,0,0,0,0,3.9,0,0,9999,77777,9,999999999,0,0,0,99,0.2,0,0
2023,9,27,23,60,9,24.4,23.7,96.0,101325,0,0,0,0,0,0,0,0,0,0,0,3.6,0,0,9999,77777,9,999999999,0,0,0,99,0.2,0,0
2023,9,27,24,60,9,24.6,23.8,95.0,101325,0,0,0,0,0,0,0,0,0,0,0,4.6,0,0,9999,77777,9,999999999,0,0,0,99,0.2,0,0
2023,9,28,1,60,9,24.1,22.9,93.0,101325,0,0,0,0,0,0,0,0,0,0,0,12.7,0,0,9999,77777,9,999999999,0,0,0,99,0.2,0,0
2023,9,28,2,60,9,24.4,23.1,92.0,101325,0,0,0,0,0,0,0,0,0,0,0,6.5,0,0,9999,77777,9,999999999,0,0,0,99,0.2,0,0
2023,9,28,3,60,9,24.8,23.4,92.0,101325,0,0,0,0,0,0,0,0,0,0,0,4.1,0,0,9999,77777,9,999999999,0,0,0,99,0.2,0,0
2023,9,28,4,60,9,25.2,23.9,93.0,101325,0,0,0,0,0,0,0,0,0,0,0,5.2,0,0,9999,77777,9,999999999,0,0,0,99,0.2,0,0
2023,9,28,5,60,9,26.7,25.1,91.0,101325,0,0,0,0,0,0,0,0,0,0,0,3.8,0,0,9999,77777,9,999999999,0,0,0,99,0.2,0,0
2023,9,28,6,60,9,28.8,25.8,84.0,101325,0,0,0,0,0,0,0,0,0,0,0,9.8,0,0,9999,77777,9,999999999,0,0,0,99,0.2,0,0
2023,9,28,7,60,9,30.0,25.8,78.0,101325,0,0,0,0,0,0,0,0,0,0,0,11.5,0,0,9999,77777,9,999999999,0,0,0,99,0.2,0,0
2023,9,28,8,60,9,29.9,26.1,80.0,101325,0,0,0,0,0,0,0,0,0,0,0,11.3,0,0,9999,77777,9,999999999,0,0,0,99,0.2,0,0
2023,9,28,9,60,9,27.8,26.0,90.0,101325,0,0,0,0,0,0,0,0,0,0,0,16.1,0,0,9999,77777,9,999999999,0,0,0,99,0.2,0,0
2023,9,28,10,60,9,28.2,25.5,86.0,101325,0,0,0,0,0,0,0,0,0,0,0,20.2,0,0,9999,77777,9,999999999,0,0,0,99,0.2,0,0
2023,9,28,11,60,9,28.0,25.5,87.0,101325,0,0,0,0,0,0,0,0,0,0,0,15.4,0,0,9999,77777,9,999999999,0,0,0,99,0.2,0,0
2023,9,28,12,60,9,27.8,25.7,88.0,101325,0,0,0,0,0,0,0,0,0,0,0,12.4,0,0,9999,77777,9,999999999,0,0,0,99,0.2,0,0
2023,9,28,13,60,9,28.2,26.3,89.0,101325,0,0,0,0,0,0,0,0,0,0,0,4.2,0,0,9999,77777,9,999999999,0,0,0,99,0.2,0,0
2023,9,28,14,60,9,27.5,26.1,92.0,101325,0,0,0,0,0,0,0,0,0,0,0,4.7,0,0,9999,77777,9,999999999,0,0,0,99,0.2,0,0
2023,9,28,15,60,9,26.7,25.9,95.0,101325,0,0,0,0,0,0,0,0,0,0,0,3.9,0,0,9999,77777,9,999999999,0,0,0,99,0.2,0,0
2023,9,28,16,60,9,26.8,25.9,95.0,101325,0,0,0,0,0,0,0,0,0,0,0,3.8,0,0,9999,77777,9,999999999,0,0,0,99,0.2,0,0
2023,9,28,17,60,9,26.5,25.9,96.0,101325,0,0,0,0,0,0,0,0,0,0,0,4.3,0,0,9999,77777,9,999999999,0,0,0,99,0.2,0,0
2023,9,28,18,60,9,26.6,25.9,96.0,101325,0,0,0,0,0,0,0,0,0,0,0,4.8,0,0,9999,77777,9,999999999,0,0,0,99,0.2,0,0
2023,9,28,19,60,9,26.4,25.7,96.0,101325,0,0,0,0,0,0,0,0,0,0,0,5.9,0,0,9999,77777,9,999999999,0,0,0,99,0.2,0,0
2023,9,28,20,60,9,26.8,25.8,94.0,101325,0,0,0,0,0,0,0,0,0,0,0,4.3,0,0,9999,77777,9,999999999,0,0,0,99,0.2,0,0
2023,9,28,21,60,9,26.1,25.5,97.0,101325,0,0,0,0,0,0,0,0,0,0,0,5.5,0,0,9999,77777,9,999999999,0,0,0,99,0.2,0,0
2023,9,28,22,60,9,26.0,25.5,97.0,101325,0,0,0,0,0,0,0,0,0,0,0,5.6,0,0,9999,77777,9,999999999,0,0,0,99,0.2,0,0
2023,9,28,23,60,9,25.9,25.4,97.0,101325,0,0,0,0,0,0,0,0,0,0,0,4.1,0,0,9999,77777,9,999999999,0,0,0,99,0.2,0,0
2023,9,28,24,60,9,26.0,25.5,97.0,101325,0,0,0,0,0,0,0,0,0,0,0,5.4,0,0,9999,77777,9,999999999,0,0,0,99,0.2,0,0
2023,9,29,1,60,9,25.7,25.4,98.0,101325,0,0,0,0,0,0,0,0,0,0,0,3.3,0,0,9999,77777,9,999999999,0,0,0,99,0.2,0,0
2023,9,29,2,60,9,26.1,25.7,97.0,101325,0,0,0,0,0,0,0,0,0,0,0,3.4,0,0,9999,77777,9,999999999,0,0,0,99,0.2,0,0
2023,9,29,3,60,9,26.4,25.9,97.0,101325,0,0,0,0,0,0,0,0,0,0,0,8.1,0,0,9999,77777,9,999999999,0,0,0,99,0.2,0,0
2023,9,29,4,60,9,27.6,26.8,95.0,101325,0,0,0,0,0,0,0,0,0,0,0,6.5,0,0,9999,77777,9,999999999,0,0,0,99,0.2,0,0
2023,9,29,5,60,9,29.3,26.5,85.0,101325,0,0,0,0,0,0,0,0,0,0,0,5.5,0,0,9999,77777,9,999999999,0,0,0,99,0.2,0,0
2023,9,29,6,60,9,30.2,26.8,82.0,101325,0,0,0,0,0,0,0,0,0,0,0,4.6,0,0,9999,77777,9,999999999,0,0,0,99,0.2,0,0
2023,9,29,7,60,9,30.4,27.1,83.0,101325,0,0,0,0,0,0,0,0,0,0,0,5.3,0,0,9999,77777,9,999999999,0,0,0,99,0.2,0,0
2023,9,29,8,60,9,30.6,27.3,83.0,101325,0,0,0,0,0,0,0,0,0,0,0,9.6,0,0,9999,77777,9,999999999,0,0,0,99,0.2,0,0
2023,9,29,9,60,9,30.4,26.7,81.0,101325,0,0,0,0,0,0,0,0,0,0,0,12.4,0,0,9999,77777,9,999999999,0,0,0,99,0.2,0,0
2023,9,29,10,60,9,28.8,26.0,85.0,101325,0,0,0,0,0,0,0,0,0,0,0,10.1,0,0,9999,77777,9,999999999,0,0,0,99,0.2,0,0
2023,9,29,11,60,9,28.1,25.4,85.0,101325,0,0,0,0,0,0,0,0,0,0,0,6.5,0,0,9999,77777,9,999999999,0,0,0,99,0.2,0,0
2023,9,29,12,60,9,28.4,25.6,85.0,101325,0,0,0,0,0,0,0,0,0,0,0,7.4,0,0,9999,77777,9,999999999,0,0,0,99,0.2,0,0
2023,9,29,13,60,9,28.0,26.4,91.0,101325,0,0,0,0,0,0,0,0,0,0,0,8.9,0,0,9999,77777,9,999999999,0,0,0,99,0.2,0,0
2023,9,29,14,60,9,27.5,26.2,92.0,101325,0,0,0,0,0,0,0,0,0,0,0,9.0,0,0,9999,77777,9,999999999,0,0,0,99,0.2,0,0
2023,9,29,15,60,9,26.5,24.7,90.0,101325,0,0,0,0,0,0,0,0,0,0,0,7.1,0,0,9999,77777,9,999999999,0,0,0,99,0.2,0,0
2023,9,29,16,60,9,26.6,25.0,91.0,101325,0,0,0,0,0,0,0,0,0,0,0,5.1,0,0,9999,77777,9,999999999,0,0,0,99,0.2,0,0
2023,9,29,17,60,9,26.1,24.8,92.0,101325,0,0,0,0,0,0,0,0,0,0,0,7.8,0,0,9999,77777,9,999999999,0,0,0,99,0.2,0,0
2023,9,29,18,60,9,26.0,25.0,94.0,101325,0,0,0,0,0,0,0,0,0,0,0,4.3,0,0,9999,77777,9,999999999,0,0,0,99,0.2,0,0
2023,9,29,19,60,9,25.7,25.2,97.0,101325,0,0,0,0,0,0,0,0,0,0,0,1.8,0,0,9999,77777,9,999999999,0,0,0,99,0.2,0,0
2023,9,29,20,60,9,25.3,24.9,98.0,101325,0,0,0,0,0,0,0,0,0,0,0,2.8,0,0,9999,77777,9,999999999,0,0,0,99,0.2,0,0
2023,9,29,21,60,9,25.3,24.8,97.0,101325,0,0,0,0,0,0,0,0,0,0,0,3.3,0,0,9999,77777,9,999999999,0,0,0,99,0.2,0,0
2023,9,29,22,60,9,25.7,24.7,94.0,101325,0,0,0,0,0,0,0,0,0,0,0,2.5,0,0,9999,77777,9,999999999,0,0,0,99,0.2,0,0
2023,9,29,23,60,9,25.0,24.4,97.0,101325,0,0,0,0,0,0,0,0,0,0,0,4.0,0,0,9999,77777,9,999999999,0,0,0,99,0.2,0,0
2023,9,29,24,60,9,24.9,24.2,96.0,101325,0,0,0,0,0,0,0,0,0,0,0,4.6,0,0,9999,77777,9,999999999,0,0,0,99,0.2,0,0
2023,9,30,1,60,9,26.0,25.2,95.0,101325,0,0,0,0,0,0,0,0,0,0,0,5.6,0,0,9999,77777,9,999999999,0,0,0,99,0.2,0,0
2023,9,30,2,60,9,25.8,25.1,96.0,101325,0,0,0,0,0,0,0,0,0,0,0,5.9,0,0,9999,77777,9,999999999,0,0,0,99,0.2,0,0
2023,9,30,3,60,9,26.5,25.6,95.0,101325,0,0,0,0,0,0,0,0,0,0,0,8.5,0,0,9999,77777,9,999999999,0,0,0,99,0.2,0,0
2023,9,30,4,60,9,28.1,26.6,92.0,101325,0,0,0,0,0,0,0,0,0,0,0,6.6,0,0,9999,77777,9,999999999,0,0,0,99,0.2,0,0
2023,9,30,5,60,9,29.7,26.7,84.0,101325,0,0,0,0,0,0,0,0,0,0,0,9.4,0,0,9999,77777,9,999999999,0,0,0,99,0.2,0,0
2023,9,30,6,60,9,31.1,26.3,76.0,101325,0,0,0,0,0,0,0,0,0,0,0,10.3,0,0,9999,77777,9,999999999,0,0,0,99,0.2,0,0
2023,9,30,7,60,9,32.2,26.4,72.0,101325,0,0,0,0,0,0,0,0,0,0,0,7.7,0,0,9999,77777,9,999999999,0,0,0,99,0.2,0,0
2023,9,30,8,60,9,32.5,26.4,70.0,101325,0,0,0,0,0,0,0,0,0,0,0,6.1,0,0,9999,77777,9,999999999,0,0,0,99,0.2,0,0
2023,9,30,9,60,9,31.5,26.5,75.0,101325,0,0,0,0,0,0,0,0,0,0,0,11.6,0,0,9999,77777,9,999999999,0,0,0,99,0.2,0,0
2023,9,30,10,60,9,30.0,26.8,83.0,101325,0,0,0,0,0,0,0,0,0,0,0,14.0,0,0,9999,77777,9,999999999,0,0,0,99,0.2,0,0
2023,9,30,11,60,9,28.8,25.9,84.0,101325,0,0,0,0,0,0,0,0,0,0,0,15.3,0,0,9999,77777,9,999999999,0,0,0,99,0.2,0,0
2023,9,30,12,60,9,27.8,25.4,87.0,101325,0,0,0,0,0,0,0,0,0,0,0,5.8,0,0,9999,77777,9,999999999,0,0,0,99,0.2,0,0
2023,9,30,13,60,9,29.3,26.9,87.0,101325,0,0,0,0,0,0,0,0,0,0,0,9.8,0,0,9999,77777,9,999999999,0,0,0,99,0.2,0,0
2023,9,30,14,60,9,28.2,26.2,89.0,101325,0,0,0,0,0,0,0,0,0,0,0,7.0,0,0,9999,77777,9,999999999,0,0,0,99,0.2,0,0
2023,9,30,15,60,9,27.6,24.9,85.0,101325,0,0,0,0,0,0,0,0,0,0,0,5.9,0,0,9999,77777,9,999999999,0,0,0,99,0.2,0,0
2023,9,30,16,60,9,27.5,24.5,83.0,101325,0,0,0,0,0,0,0,0,0,0,0,5.1,0,0,9999,77777,9,999999999,0,0,0,99,0.2,0,0
2023,9,30,17,60,9,27.4,25.3,88.0,101325,0,0,0,0,0,0,0,0,0,0,0,4.3,0,0,9999,77777,9,999999999,0,0,0,99,0.2,0,0
2023,9,30,18,60,9,27.8,25.3,87.0,101325,0,0,0,0,0,0,0,0,0,0,0,2.5,0,0,9999,77777,9,999999999,0,0,0,99,0.2,0,0
2023,9,30,19,60,9,26.9,25.6,93.0,101325,0,0,0,0,0,0,0,0,0,0,0,3.8,0,0,9999,77777,9,999999999,0,0,0,99,0.2,0,0
2023,9,30,20,60,9,27.4,26.1,93.0,101325,0,0,0,0,0,0,0,0,0,0,0,10.0,0,0,9999,77777,9,999999999,0,0,0,99,0.2,0,0
2023,9,30,21,60,9,27.2,25.8,92.0,101325,0,0,0,0,0,0,0,0,0,0,0,6.6,0,0,9999,77777,9,999999999,0,0,0,99,0.2,0,0
2023,9,30,22,60,9,27.2,26.0,93.0,101325,0,0,0,0,0,0,0,0,0,0,0,4.8,0,0,9999,77777,9,999999999,0,0,0,99,0.2,0,0
2023,9,30,23,60,9,27.1,26.2,95.0,101325,0,0,0,0,0,0,0,0,0,0,0,3.5,0,0,9999,77777,9,999999999,0,0,0,99,0.2,0,0
2023,9,30,24,60,9,27.5,26.3,93.0,101325,0,0,0,0,0,0,0,0,0,0,0,2.9,0,0,9999,77777,9,999999999,0,0,0,99,0.2,0,0
2023,10,1,1,60,9,27.0,25.9,94.0,101325,0,0,0,0,0,0,0,0,0,0,0,6.2,0,0,9999,77777,9,999999999,0,0,0,99,0.2,0,0
2023,10,1,2,60,9,26.8,26.1,96.0,101325,0,0,0,0,0,0,0,0,0,0,0,4.0,0,0,9999,77777,9,999999999,0,0,0,99,0.2,0,0
2023,10,1,3,60,9,27.3,26.1,93.0,101325,0,0,0,0,0,0,0,0,0,0,0,4.0,0,0,9999,77777,9,999999999,0,0,0,99,0.2,0,0
2023,10,1,4,60,9,27.4,26.5,95.0,101325,0,0,0,0,0,0,0,0,0,0,0,3.3,0,0,9999,77777,9,999999999,0,0,0,99,0.2,0,0
2023,10,1,5,60,9,28.4,27.1,93.0,101325,0,0,0,0,0,0,0,0,0,0,0,4.2,0,0,9999,77777,9,999999999,0,0,0,99,0.2,0,0
2023,10,1,6,60,9,29.3,27.0,88.0,101325,0,0,0,0,0,0,0,0,0,0,0,4.3,0,0,9999,77777,9,999999999,0,0,0,99,0.2,0,0
2023,10,1,7,60,9,29.9,26.6,82.0,101325,0,0,0,0,0,0,0,0,0,0,0,7.8,0,0,9999,77777,9,999999999,0,0,0,99,0.2,0,0
2023,10,1,8,60,9,30.9,25.9,75.0,101325,0,0,0,0,0,0,0,0,0,0,0,11.1,0,0,9999,77777,9,999999999,0,0,0,99,0.2,0,0
2023,10,1,9,60,9,30.6,25.5,74.0,101325,0,0,0,0,0,0,0,0,0,0,0,16.3,0,0,9999,77777,9,999999999,0,0,0,99,0.2,0,0
2023,10,1,10,60,9,30.1,25.5,77.0,101325,0,0,0,0,0,0,0,0,0,0,0,17.3,0,0,9999,77777,9,999999999,0,0,0,99,0.2,0,0
2023,10,1,11,60,9,29.5,25.4,79.0,101325,0,0,0,0,0,0,0,0,0,0,0,17.5,0,0,9999,77777,9,999999999,0,0,0,99,0.2,0,0
2023,10,1,12,60,9,29.3,25.9,82.0,101325,0,0,0,0,0,0,0,0,0,0,0,16.3,0,0,9999,77777,9,999999999,0,0,0,99,0.2,0,0
2023,10,1,13,60,9,29.3,26.2,83.0,101325,0,0,0,0,0,0,0,0,0,0,0,12.4,0,0,9999,77777,9,999999999,0,0,0,99,0.2,0,0
2023,10,1,14,60,9,28.9,26.5,87.0,101325,0,0,0,0,0,0,0,0,0,0,0,11.3,0,0,9999,77777,9,999999999,0,0,0,99,0.2,0,0
2023,10,1,15,60,9,28.6,26.7,89.0,101325,0,0,0,0,0,0,0,0,0,0,0,8.3,0,0,9999,77777,9,999999999,0,0,0,99,0.2,0,0
2023,10,1,16,60,9,28.3,27.0,92.0,101325,0,0,0,0,0,0,0,0,0,0,0,6.5,0,0,9999,77777,9,999999999,0,0,0,99,0.2,0,0
2023,10,1,17,60,9,28.1,27.3,95.0,101325,0,0,0,0,0,0,0,0,0,0,0,5.2,0,0,9999,77777,9,999999999,0,0,0,99,0.2,0,0
2023,10,1,18,60,9,27.7,27.2,97.0,101325,0,0,0,0,0,0,0,0,0,0,0,3.8,0,0,9999,77777,9,999999999,0,0,0,99,0.2,0,0
2023,10,1,19,60,9,27.9,27.2,96.0,101325,0,0,0,0,0,0,0,0,0,0,0,5.8,0,0,9999,77777,9,999999999,0,0,0,99,0.2,0,0
2023,10,1,20,60,9,27.9,26.8,94.0,101325,0,0,0,0,0,0,0,0,0,0,0,7.9,0,0,9999,77777,9,999999999,0,0,0,99,0.2,0,0
2023,10,1,21,60,9,28.0,27.0,94.0,101325,0,0,0,0,0,0,0,0,0,0,0,9.7,0,0,9999,77777,9,999999999,0,0,0,99,0.2,0,0
2023,10,1,22,60,9,28.0,26.7,93.0,101325,0,0,0,0,0,0,0,0,0,0,0,11.9,0,0,9999,77777,9,999999999,0,0,0,99,0.2,0,0
2023,10,1,23,60,9,27.7,26.4,93.0,101325,0,0,0,0,0,0,0,0,0,0,0,12.1,0,0,9999,77777,9,999999999,0,0,0,99,0.2,0,0
2023,10,1,24,60,9,27.7,26.3,92.0,101325,0,0,0,0,0,0,0,0,0,0,0,11.7,0,0,9999,77777,9,999999999,0,0,0,99,0.2,0,0
2023,10,2,1,60,9,24.1,23.5,96.0,101325,0,0,0,0,0,0,0,0,0,0,0,3.6,0,0,9999,77777,9,999999999,0,0,0,99,0.2,0,0
2023,10,2,2,60,9,24.9,23.6,93.0,101325,0,0,0,0,0,0,0,0,0,0,0,5.6,0,0,9999,77777,9,999999999,0,0,0,99,0.2,0,0
2023,10,2,3,60,9,25.3,23.9,92.0,101325,0,0,0,0,0,0,0,0,0,0,0,13.0,0,0,9999,77777,9,999999999,0,0,0,99,0.2,0,0
2023,10,2,4,60,9,25.8,24.2,91.0,101325,0,0,0,0,0,0,0,0,0,0,0,5.5,0,0,9999,77777,9,999999999,0,0,0,99,0.2,0,0
2023,10,2,5,60,9,26.8,24.7,88.0,101325,0,0,0,0,0,0,0,0,0,0,0,6.6,0,0,9999,77777,9,999999999,0,0,0,99,0.2,0,0
2023,10,2,6,60,9,28.1,24.9,83.0,101325,0,0,0,0,0,0,0,0,0,0,0,10.7,0,0,9999,77777,9,999999999,0,0,0,99,0.2,0,0
2023,10,2,7,60,9,28.6,24.9,81.0,101325,0,0,0,0,0,0,0,0,0,0,0,8.9,0,0,9999,77777,9,999999999,0,0,0,99,0.2,0,0
2023,10,2,8,60,9,28.7,25.0,80.0,101325,0,0,0,0,0,0,0,0,0,0,0,10.0,0,0,9999,77777,9,999999999,0,0,0,99,0.2,0,0
2023,10,2,9,60,9,28.9,24.9,79.0,101325,0,0,0,0,0,0,0,0,0,0,0,11.6,0,0,9999,77777,9,999999999,0,0,0,99,0.2,0,0
2023,10,2,10,60,9,29.2,24.7,77.0,101325,0,0,0,0,0,0,0,0,0,0,0,13.0,0,0,9999,77777,9,999999999,0,0,0,99,0.2,0,0
2023,10,2,11,60,9,29.1,25.0,79.0,101325,0,0,0,0,0,0,0,0,0,0,0,11.6,0,0,9999,77777,9,999999999,0,0,0,99,0.2,0,0
2023,10,2,12,60,9,29.0,24.9,78.0,101325,0,0,0,0,0,0,0,0,0,0,0,11.3,0,0,9999,77777,9,999999999,0,0,0,99,0.2,0,0
2023,10,2,13,60,9,28.6,25.3,83.0,101325,0,0,0,0,0,0,0,0,0,0,0,11.2,0,0,9999,77777,9,999999999,0,0,0,99,0.2,0,0
2023,10,2,14,60,9,27.6,25.1,86.0,101325,0,0,0,0,0,0,0,0,0,0,0,8.3,0,0,9999,77777,9,999999999,0,0,0,99,0.2,0,0
2023,10,2,15,60,9,27.2,24.8,87.0,101325,0,0,0,0,0,0,0,0,0,0,0,7.6,0,0,9999,77777,9,999999999,0,0,0,99,0.2,0,0
2023,10,2,16,60,9,26.5,24.7,90.0,101325,0,0,0,0,0,0,0,0,0,0,0,5.2,0,0,9999,77777,9,999999999,0,0,0,99,0.2,0,0
2023,10,2,17,60,9,26.1,24.6,92.0,101325,0,0,0,0,0,0,0,0,0,0,0,4.5,0,0,9999,77777,9,999999999,0,0,0,99,0.2,0,0
2023,10,2,18,60,9,26.2,24.5,90.0,101325,0,0,0,0,0,0,0,0,0,0,0,5.8,0,0,9999,77777,9,999999999,0,0,0,99,0.2,0,0
2023,10,2,19,60,9,26.1,24.3,90.0,101325,0,0,0,0,0,0,0,0,0,0,0,6.2,0,0,9999,77777,9,999999999,0,0,0,99,0.2,0,0
2023,10,2,20,60,9,26.0,24.1,89.0,101325,0,0,0,0,0,0,0,0,0,0,0,5.8,0,0,9999,77777,9,999999999,0,0,0,99,0.2,0,0
2023,10,2,21,60,9,25.6,24.0,91.0,101325,0,0,0,0,0,0,0,0,0,0,0,5.1,0,0,9999,77777,9,999999999,0,0,0,99,0.2,0,0
2023,10,2,22,60,9,25.7,24.0,91.0,101325,0,0,0,0,0,0,0,0,0,0,0,4.3,0,0,9999,77777,9,999999999,0,0,0,99,0.2,0,0
2023,10,2,23,60,9,25.9,24.2,90.0,101325,0,0,0,0,0,0,0,0,0,0,0,4.0,0,0,9999,77777,9,999999999,0,0,0,99,0.2,0,0
2023,10,2,24,60,9,26.1,24.3,90.0,101325,0,0,0,0,0,0,0,0,0,0,0,3.6,0,0,9999,77777,9,999999999,0,0,0,99,0.2,0,0
2023,10,3,1,60,9,26.5,24.2,87.0,101325,0,0,0,0,0,0,0,0,0,0,0,3.1,0,0,9999,77777,9,999999999,0,0,0,99,0.2,0,0
2023,10,3,2,60,9,25.7,24.3,92.0,101325,0,0,0,0,0,0,0,0,0,0,0,3.7,0,0,9999,77777,9,999999999,0,0,0,99,0.2,0,0
2023,10,3,3,60,9,26.6,25.0,91.0,101325,0,0,0,0,0,0,0,0,0,0,0,2.7,0,0,9999,77777,9,999999999,0,0,0,99,0.2,0,0
2023,10,3,4,60,9,27.6,24.5,83.0,101325,0,0,0,0,0,0,0,0,0,0,0,4.5,0,0,9999,77777,9,999999999,0,0,0,99,0.2,0,0
2023,10,3,5,60,9,28.5,23.9,76.0,101325,0,0,0,0,0,0,0,0,0,0,0,6.5,0,0,9999,77777,9,999999999,0,0,0,99,0.2,0,0
2023,10,3,6,60,9,29.3,23.9,73.0,101325,0,0,0,0,0,0,0,0,0,0,0,6.8,0,0,9999,77777,9,999999999,0,0,0,99,0.2,0,0
2023,10,3,7,60,9,29.7,24.2,72.0,101325,0,0,0,0,0,0,0,0,0,0,0,7.9,0,0,9999,77777,9,999999999,0,0,0,99,0.2,0,0
2023,10,3,8,60,9,29.6,24.5,74.0,101325,0,0,0,0,0,0,0,0,0,0,0,10.5,0,0,9999,77777,9,999999999,0,0,0,99,0.2,0,0
2023,10,3,9,60,9,29.4,24.6,75.0,101325,0,0,0,0,0,0,0,0,0,0,0,12.0,0,0,9999,77777,9,999999999,0,0,0,99,0.2,0,0
2023,10,3,10,60,9,29.2,24.6,76.0,101325,0,0,0,0,0,0,0,0,0,0,0,12.7,0,0,9999,77777,9,999999999,0,0,0,99,0.2,0,0
2023,10,3,11,60,9,29.0,24.2,75.0,101325,0,0,0,0,0,0,0,0,0,0,0,12.6,0,0,9999,77777,9,999999999,0,0,0,99,0.2,0,0
2023,10,3,12,60,9,28.4,23.5,75.0,101325,0,0,0,0,0,0,0,0,0,0,0,12.9,0,0,9999,77777,9,999999999,0,0,0,99,0.2,0,0
2023,10,3,13,60,9,28.1,23.7,77.0,101325,0,0,0,0,0,0,0,0,0,0,0,11.9,0,0,9999,77777,9,999999999,0,0,0,99,0.2,0,0
2023,10,3,14,60,9,27.3,23.6,80.0,101325,0,0,0,0,0,0,0,0,0,0,0,7.1,0,0,9999,77777,9,999999999,0,0,0,99,0.2,0,0
2023,10,3,15,60,9,26.8,23.9,84.0,101325,0,0,0,0,0,0,0,0,0,0,0,5.6,0,0,9999,77777,9,999999999,0,0,0,99,0.2,0,0
2023,10,3,16,60,9,26.1,24.2,89.0,101325,0,0,0,0,0,0,0,0,0,0,0,5.0,0,0,9999,77777,9,999999999,0,0,0,99,0.2,0,0
2023,10,3,17,60,9,26.3,24.1,88.0,101325,0,0,0,0,0,0,0,0,0,0,0,4.3,0,0,9999,77777,9,999999999,0,0,0,99,0.2,0,0
2023,10,3,18,60,9,25.9,24.1,90.0,101325,0,0,0,0,0,0,0,0,0,0,0,4.9,0,0,9999,77777,9,999999999,0,0,0,99,0.2,0,0
2023,10,3,19,60,9,26.8,23.9,84.0,101325,0,0,0,0,0,0,0,0,0,0,0,3.7,0,0,9999,77777,9,999999999,0,0,0,99,0.2,0,0
2023,10,3,20,60,9,27.0,23.8,83.0,101325,0,0,0,0,0,0,0,0,0,0,0,2.6,0,0,9999,77777,9,999999999,0,0,0,99,0.2,0,0
2023,10,3,21,60,9,26.9,23.8,83.0,101325,0,0,0,0,0,0,0,0,0,0,0,0.4,0,0,9999,77777,9,999999999,0,0,0,99,0.2,0,0
2023,10,3,22,60,9,26.6,23.9,85.0,101325,0,0,0,0,0,0,0,0,0,0,0,0.8,0,0,9999,77777,9,999999999,0,0,0,99,0.2,0,0
2023,10,3,23,60,9,26.6,23.9,85.0,101325,0,0,0,0,0,0,0,0,0,0,0,1.8,0,0,9999,77777,9,999999999,0,0,0,99,0.2,0,0
2023,10,3,24,60,9,25.8,24.4,92.0,101325,0,0,0,0,0,0,0,0,0,0,0,3.1,0,0,9999,77777,9,999999999,0,0,0,99,0.2,0,0
2023,10,4,1,60,9,25.3,24.7,96.0,101325,0,0,0,0,0,0,0,0,0,0,0,3.7,0,0,9999,77777,9,999999999,0,0,0,99,0.2,0,0
2023,10,4,2,60,9,23.9,22.3,91.0,101325,0,0,0,0,0,0,0,0,0,0,0,8.2,0,0,9999,77777,9,999999999,0,0,0,99,0.2,0,0
2023,10,4,3,60,9,24.6,22.8,90.0,101325,0,0,0,0,0,0,0,0,0,0,0,5.8,0,0,9999,77777,9,999999999,0,0,0,99,0.2,0,0
2023,10,4,4,60,9,25.4,23.5,90.0,101325,0,0,0,0,0,0,0,0,0,0,0,3.0,0,0,9999,77777,9,999999999,0,0,0,99,0.2,0,0
2023,10,4,5,60,9,27.1,24.3,85.0,101325,0,0,0,0,0,0,0,0,0,0,0,3.9,0,0,9999,77777,9,999999999,0,0,0,99,0.2,0,0
2023,10,4,6,60,9,28.6,25.0,81.0,101325,0,0,0,0,0,0,0,0,0,0,0,3.5,0,0,9999,77777,9,999999999,0,0,0,99,0.2,0,0
2023,10,4,7,60,9,29.6,25.4,78.0,101325,0,0,0,0,0,0,0,0,0,0,0,3.9,0,0,9999,77777,9,999999999,0,0,0,99,0.2,0,0
2023,10,4,8,60,9,29.9,25.7,78.0,101325,0,0,0,0,0,0,0,0,0,0,0,9.0,0,0,9999,77777,9,999999999,0,0,0,99,0.2,0,0
2023,10,4,9,60,9,29.5,25.4,79.0,101325,0,0,0,0,0,0,0,0,0,0,0,12.3,0,0,9999,77777,9,999999999,0,0,0,99,0.2,0,0
2023,10,4,10,60,9,29.1,24.8,78.0,101325,0,0,0,0,0,0,0,0,0,0,0,14.0,0,0,9999,77777,9,999999999,0,0,0,99,0.2,0,0
2023,10,4,11,60,9,29.0,24.8,78.0,101325,0,0,0,0,0,0,0,0,0,0,0,14.5,0,0,9999,77777,9,999999999,0,0,0,99,0.2,0,0
2023,10,4,12,60,9,28.6,25.0,81.0,101325,0,0,0,0,0,0,0,0,0,0,0,12.7,0,0,9999,77777,9,999999999,0,0,0,99,0.2,0,0
2023,10,4,13,60,9,28.6,24.8,80.0,101325,0,0,0,0,0,0,0,0,0,0,0,12.9,0,0,9999,77777,9,999999999,0,0,0,99,0.2,0,0
2023,10,4,14,60,9,27.7,24.6,83.0,101325,0,0,0,0,0,0,0,0,0,0,0,12.6,0,0,9999,77777,9,999999999,0,0,0,99,0.2,0,0
2023,10,4,15,60,9,27.3,24.5,85.0,101325,0,0,0,0,0,0,0,0,0,0,0,9.4,0,0,9999,77777,9,999999999,0,0,0,99,0.2,0,0
2023,10,4,16,60,9,26.7,24.5,88.0,101325,0,0,0,0,0,0,0,0,0,0,0,5.9,0,0,9999,77777,9,999999999,0,0,0,99,0.2,0,0
2023,10,4,17,60,9,26.1,24.4,91.0,101325,0,0,0,0,0,0,0,0,0,0,0,5.1,0,0,9999,77777,9,999999999,0,0,0,99,0.2,0,0
2023,10,4,18,60,9,25.3,24.0,93.0,101325,0,0,0,0,0,0,0,0,0,0,0,6.6,0,0,9999,77777,9,999999999,0,0,0,99,0.2,0,0
2023,10,4,19,60,9,26.7,24.3,86.0,101325,0,0,0,0,0,0,0,0,0,0,0,0.8,0,0,9999,77777,9,999999999,0,0,0,99,0.2,0,0
2023,10,4,20,60,9,25.3,24.0,93.0,101325,0,0,0,0,0,0,0,0,0,0,0,4.0,0,0,9999,77777,9,999999999,0,0,0,99,0.2,0,0
2023,10,4,21,60,9,25.7,24.2,91.0,101325,0,0,0,0,0,0,0,0,0,0,0,2.3,0,0,9999,77777,9,999999999,0,0,0,99,0.2,0,0
2023,10,4,22,60,9,24.5,23.9,96.0,101325,0,0,0,0,0,0,0,0,0,0,0,1.3,0,0,9999,77777,9,999999999,0,0,0,99,0.2,0,0
2023,10,4,23,60,9,24.2,23.6,96.0,101325,0,0,0,0,0,0,0,0,0,0,0,3.4,0,0,9999,77777,9,999999999,0,0,0,99,0.2,0,0
2023,10,4,24,60,9,24.4,23.7,96.0,101325,0,0,0,0,0,0,0,0,0,0,0,3.9,0,0,9999,77777,9,999999999,0,0,0,99,0.2,0,0
2023,10,5,1,60,9,24.9,24.4,97.0,101325,0,0,0,0,0,0,0,0,0,0,0,4.4,0,0,9999,77777,9,999999999,0,0,0,99,0.2,0,0
2023,10,5,2,60,9,25.0,24.5,97.0,101325,0,0,0,0,0,0,0,0,0,0,0,5.8,0,0,9999,77777,9,999999999,0,0,0,99,0.2,0,0
2023,10,5,3,60,9,25.1,24.8,98.0,101325,0,0,0,0,0,0,0,0,0,0,0,7.6,0,0,9999,77777,9,999999999,0,0,0,99,0.2,0,0
2023,10,5,4,60,9,26.8,25.1,90.0,101325,0,0,0,0,0,0,0,0,0,0,0,7.6,0,0,9999,77777,9,999999999,0,0,0,99,0.2,0,0
2023,10,5,5,60,9,28.5,25.2,82.0,101325,0,0,0,0,0,0,0,0,0,0,0,6.5,0,0,9999,77777,9,999999999,0,0,0,99,0.2,0,0
2023,10,5,6,60,9,29.5,24.8,76.0,101325,0,0,0,0,0,0,0,0,0,0,0,6.5,0,0,9999,77777,9,999999999,0,0,0,99,0.2,0,0
2023,10,5,7,60,9,30.1,24.5,72.0,101325,0,0,0,0,0,0,0,0,0,0,0,8.5,0,0,9999,77777,9,999999999,0,0,0,99,0.2,0,0
2023,10,5,8,60,9,30.5,24.5,71.0,101325,0,0,0,0,0,0,0,0,0,0,0,10.7,0,0,9999,77777,9,999999999,0,0,0,99,0.2,0,0
2023,10,5,9,60,9,30.1,25.0,74.0,101325,0,0,0,0,0,0,0,0,0,0,0,12.9,0,0,9999,77777,9,999999999,0,0,0,99,0.2,0,0
2023,10,5,10,60,9,29.7,25.1,76.0,101325,0,0,0,0,0,0,0,0,0,0,0,14.1,0,0,9999,77777,9,999999999,0,0,0,99,0.2,0,0
2023,10,5,11,60,9,29.5,24.6,75.0,101325,0,0,0,0,0,0,0,0,0,0,0,14.9,0,0,9999,77777,9,999999999,0,0,0,99,0.2,0,0
2023,10,5,12,60,9,29.1,24.7,77.0,101325,0,0,0,0,0,0,0,0,0,0,0,15.1,0,0,9999,77777,9,999999999,0,0,0,99,0.2,0,0
2023,10,5,13,60,9,28.6,25.0,81.0,101325,0,0,0,0,0,0,0,0,0,0,0,15.8,0,0,9999,77777,9,999999999,0,0,0,99,0.2,0,0
2023,10,5,14,60,9,27.7,24.6,83.0,101325,0,0,0,0,0,0,0,0,0,0,0,14.6,0,0,9999,77777,9,999999999,0,0,0,99,0.2,0,0
2023,10,5,15,60,9,27.4,24.4,84.0,101325,0,0,0,0,0,0,0,0,0,0,0,14.1,0,0,9999,77777,9,999999999,0,0,0,99,0.2,0,0
2023,10,5,16,60,9,27.1,24.5,86.0,101325,0,0,0,0,0,0,0,0,0,0,0,12.1,0,0,9999,77777,9,999999999,0,0,0,99,0.2,0,0
2023,10,5,17,60,9,26.7,24.6,88.0,101325,0,0,0,0,0,0,0,0,0,0,0,8.1,0,0,9999,77777,9,999999999,0,0,0,99,0.2,0,0
2023,10,5,18,60,9,25.4,24.4,94.0,101325,0,0,0,0,0,0,0,0,0,0,0,7.4,0,0,9999,77777,9,999999999,0,0,0,99,0.2,0,0
2023,10,5,19,60,9,25.2,24.3,95.0,101325,0,0,0,0,0,0,0,0,0,0,0,4.8,0,0,9999,77777,9,999999999,0,0,0,99,0.2,0,0
2023,10,5,20,60,9,25.1,24.5,97.0,101325,0,0,0,0,0,0,0,0,0,0,0,4.2,0,0,9999,77777,9,999999999,0,0,0,99,0.2,0,0
2023,10,5,21,60,9,25.1,24.6,97.0,101325,0,0,0,0,0,0,0,0,0,0,0,2.8,0,0,9999,77777,9,999999999,0,0,0,99,0.2,0,0
2023,10,5,22,60,9,24.9,24.4,97.0,101325,0,0,0,0,0,0,0,0,0,0,0,3.6,0,0,9999,77777,9,999999999,0,0,0,99,0.2,0,0
2023,10,5,23,60,9,25.0,24.6,98.0,101325,0,0,0,0,0,0,0,0,0,0,0,2.9,0,0,9999,77777,9,999999999,0,0,0,99,0.2,0,0
2023,10,5,24,60,9,24.6,24.5,99.0,101325,0,0,0,0,0,0,0,0,0,0,0,4.8,0,0,9999,77777,9,999999999,0,0,0,99,0.2,0,0
2023,10,6,1,60,9,25.4,24.6,96.0,101325,0,0,0,0,0,0,0,0,0,0,0,4.2,0,0,9999,77777,9,999999999,0,0,0,99,0.2,0,0
2023,10,6,2,60,9,25.4,24.3,94.0,101325,0,0,0,0,0,0,0,0,0,0,0,4.8,0,0,9999,77777,9,999999999,0,0,0,99,0.2,0,0
2023,10,6,3,60,9,25.8,24.4,92.0,101325,0,0,0,0,0,0,0,0,0,0,0,3.4,0,0,9999,77777,9,999999999,0,0,0,99,0.2,0,0
2023,10,6,4,60,9,26.8,24.6,88.0,101325,0,0,0,0,0,0,0,0,0,0,0,6.2,0,0,9999,77777,9,999999999,0,0,0,99,0.2,0,0
2023,10,6,5,60,9,28.2,24.3,79.0,101325,0,0,0,0,0,0,0,0,0,0,0,8.0,0,0,9999,77777,9,999999999,0,0,0,99,0.2,0,0
2023,10,6,6,60,9,29.2,24.1,74.0,101325,0,0,0,0,0,0,0,0,0,0,0,8.1,0,0,9999,77777,9,999999999,0,0,0,99,0.2,0,0
2023,10,6,7,60,9,29.7,24.0,71.0,101325,0,0,0,0,0,0,0,0,0,0,0,7.7,0,0,9999,77777,9,999999999,0,0,0,99,0.2,0,0
2023,10,6,8,60,9,29.9,24.0,71.0,101325,0,0,0,0,0,0,0,0,0,0,0,9.9,0,0,9999,77777,9,999999999,0,0,0,99,0.2,0,0
2023,10,6,9,60,9,29.8,24.2,72.0,101325,0,0,0,0,0,0,0,0,0,0,0,13.2,0,0,9999,77777,9,999999999,0,0,0,99,0.2,0,0
2023,10,6,10,60,9,29.5,24.3,73.0,101325,0,0,0,0,0,0,0,0,0,0,0,15.3,0,0,9999,77777,9,999999999,0,0,0,99,0.2,0,0
2023,10,6,11,60,9,29.3,24.2,74.0,101325,0,0,0,0,0,0,0,0,0,0,0,16.5,0,0,9999,77777,9,999999999,0,0,0,99,0.2,0,0
2023,10,6,12,60,9,28.9,24.2,76.0,101325,0,0,0,0,0,0,0,0,0,0,0,16.8,0,0,9999,77777,9,999999999,0,0,0,99,0.2,0,0
2023,10,6,13,60,9,28.5,24.1,77.0,101325,0,0,0,0,0,0,0,0,0,0,0,14.5,0,0,9999,77777,9,999999999,0,0,0,99,0.2,0,0
2023,10,6,14,60,9,27.7,23.9,80.0,101325,0,0,0,0,0,0,0,0,0,0,0,14.0,0,0,9999,77777,9,999999999,0,0,0,99,0.2,0,0
2023,10,6,15,60,9,27.4,24.1,82.0,101325,0,0,0,0,0,0,0,0,0,0,0,12.0,0,0,9999,77777,9,999999999,0,0,0,99,0.2,0,0
2023,10,6,16,60,9,27.1,24.1,84.0,101325,0,0,0,0,0,0,0,0,0,0,0,10.5,0,0,9999,77777,9,999999999,0,0,0,99,0.2,0,0
2023,10,6,17,60,9,26.7,24.1,86.0,101325,0,0,0,0,0,0,0,0,0,0,0,8.9,0,0,9999,77777,9,999999999,0,0,0,99,0.2,0,0
2023,10,6,18,60,9,25.7,24.2,91.0,101325,0,0,0,0,0,0,0,0,0,0,0,5.6,0,0,9999,77777,9,999999999,0,0,0,99,0.2,0,0
2023,10,6,19,60,9,24.9,24.0,95.0,101325,0,0,0,0,0,0,0,0,0,0,0,6.3,0,0,9999,77777,9,999999999,0,0,0,99,0.2,0,0
2023,10,6,20,60,9,24.6,23.9,96.0,101325,0,0,0,0,0,0,0,0,0,0,0,5.7,0,0,9999,77777,9,999999999,0,0,0,99,0.2,0,0
2023,10,6,21,60,9,24.8,24.1,96.0,101325,0,0,0,0,0,0,0,0,0,0,0,4.8,0,0,9999,77777,9,999999999,0,0,0,99,0.2,0,0
2023,10,6,22,60,9,24.5,23.9,97.0,101325,0,0,0,0,0,0,0,0,0,0,0,4.8,0,0,9999,77777,9,999999999,0,0,0,99,0.2,0,0
2023,10,6,23,60,9,24.3,23.9,97.0,101325,0,0,0,0,0,0,0,0,0,0,0,5.4,0,0,9999,77777,9,999999999,0,0,0,99,0.2,0,0
2023,10,6,24,60,9,24.1,23.6,97.0,101325,0,0,0,0,0,0,0,0,0,0,0,4.6,0,0,9999,77777,9,999999999,0,0,0,99,0.2,0,0
2023,10,7,1,60,9,24.7,23.9,96.0,101325,0,0,0,0,0,0,0,0,0,0,0,5.7,0,0,9999,77777,9,999999999,0,0,0,99,0.2,0,0
2023,10,7,2,60,9,24.7,24.0,96.0,101325,0,0,0,0,0,0,0,0,0,0,0,6.0,0,0,9999,77777,9,999999999,0,0,0,99,0.2,0,0
2023,10,7,3,60,9,25.3,24.4,95.0,101325,0,0,0,0,0,0,0,0,0,0,0,7.7,0,0,9999,77777,9,999999999,0,0,0,99,0.2,0,0
2023,10,7,4,60,9,26.9,25.3,91.0,101325,0,0,0,0,0,0,0,0,0,0,0,7.4,0,0,9999,77777,9,999999999,0,0,0,99,0.2,0,0
2023,10,7,5,60,9,28.5,25.0,81.0,101325,0,0,0,0,0,0,0,0,0,0,0,8.7,0,0,9999,77777,9,999999999,0,0,0,99,0.2,0,0
2023,10,7,6,60,9,29.6,24.9,76.0,101325,0,0,0,0,0,0,0,0,0,0,0,6.8,0,0,9999,77777,9,999999999,0,0,0,99,0.2,0,0
2023,10,7,7,60,9,30.4,24.7,71.0,101325,0,0,0,0,0,0,0,0,0,0,0,8.0,0,0,9999,77777,9,999999999,0,0,0,99,0.2,0,0
2023,10,7,8,60,9,30.4,24.8,72.0,101325,0,0,0,0,0,0,0,0,0,0,0,11.8,0,0,9999,77777,9,999999999,0,0,0,99,0.2,0,0
2023,10,7,9,60,9,30.0,25.5,77.0,101325,0,0,0,0,0,0,0,0,0,0,0,16.1,0,0,9999,77777,9,999999999,0,0,0,99,0.2,0,0
2023,10,7,10,60,9,29.7,25.2,77.0,101325,0,0,0,0,0,0,0,0,0,0,0,18.1,0,0,9999,77777,9,999999999,0,0,0,99,0.2,0,0
2023,10,7,11,60,9,29.6,24.9,76.0,101325,0,0,0,0,0,0,0,0,0,0,0,17.2,0,0,9999,77777,9,999999999,0,0,0,99,0.2,0,0
2023,10,7,12,60,9,29.2,24.8,77.0,101325,0,0,0,0,0,0,0,0,0,0,0,16.1,0,0,9999,77777,9,999999999,0,0,0,99,0.2,0,0
2023,10,7,13,60,9,28.9,24.9,79.0,101325,0,0,0,0,0,0,0,0,0,0,0,15.4,0,0,9999,77777,9,999999999,0,0,0,99,0.2,0,0
2023,10,7,14,60,9,27.9,24.5,82.0,101325,0,0,0,0,0,0,0,0,0,0,0,14.3,0,0,9999,77777,9,999999999,0,0,0,99,0.2,0,0
2023,10,7,15,60,9,27.2,24.4,85.0,101325,0,0,0,0,0,0,0,0,0,0,0,14.3,0,0,9999,77777,9,999999999,0,0,0,99,0.2,0,0
2023,10,7,16,60,9,26.9,24.6,87.0,101325,0,0,0,0,0,0,0,0,0,0,0,13.9,0,0,9999,77777,9,999999999,0,0,0,99,0.2,0,0
2023,10,7,17,60,9,26.4,24.4,89.0,101325,0,0,0,0,0,0,0,0,0,0,0,11.7,0,0,9999,77777,9,999999999,0,0,0,99,0.2,0,0
2023,10,7,18,60,9,25.8,24.0,90.0,101325,0,0,0,0,0,0,0,0,0,0,0,9.0,0,0,9999,77777,9,999999999,0,0,0,99,0.2,0,0
2023,10,7,19,60,9,25.3,23.3,89.0,101325,0,0,0,0,0,0,0,0,0,0,0,6.8,0,0,9999,77777,9,999999999,0,0,0,99,0.2,0,0
2023,10,7,20,60,9,24.8,23.0,89.0,101325,0,0,0,0,0,0,0,0,0,0,0,5.8,0,0,9999,77777,9,999999999,0,0,0,99,0.2,0,0
2023,10,7,21,60,9,24.6,22.6,88.0,101325,0,0,0,0,0,0,0,0,0,0,0,6.5,0,0,9999,77777,9,999999999,0,0,0,99,0.2,0,0
2023,10,7,22,60,9,24.8,22.2,85.0,101325,0,0,0,0,0,0,0,0,0,0,0,8.4,0,0,9999,77777,9,999999999,0,0,0,99,0.2,0,0
2023,10,7,23,60,9,24.8,22.5,87.0,101325,0,0,0,0,0,0,0,0,0,0,0,9.9,0,0,9999,77777,9,999999999,0,0,0,99,0.2,0,0
2023,10,7,24,60,9,24.7,22.9,90.0,101325,0,0,0,0,0,0,0,0,0,0,0,9.8,0,0,9999,77777,9,999999999,0,0,0,99,0.2,0,0
2023,10,8,1,60,9,25.3,23.4,89.0,101325,0,0,0,0,0,0,0,0,0,0,0,9.1,0,0,9999,77777,9,999999999,0,0,0,99,0.2,0,0
2023,10,8,2,60,9,25.2,23.2,89.0,101325,0,0,0,0,0,0,0,0,0,0,0,8.7,0,0,9999,77777,9,999999999,0,0,0,99,0.2,0,0
2023,10,8,3,60,9,25.8,23.7,88.0,101325,0,0,0,0,0,0,0,0,0,0,0,9.6,0,0,9999,77777,9,999999999,0,0,0,99,0.2,0,0
2023,10,8,4,60,9,27.4,24.6,84.0,101325,0,0,0,0,0,0,0,0,0,0,0,8.7,0,0,9999,77777,9,999999999,0,0,0,99,0.2,0,0
2023,10,8,5,60,9,29.0,25.1,80.0,101325,0,0,0,0,0,0,0,0,0,0,0,9.4,0,0,9999,77777,9,999999999,0,0,0,99,0.2,0,0
2023,10,8,6,60,9,30.2,25.4,76.0,101325,0,0,0,0,0,0,0,0,0,0,0,9.5,0,0,9999,77777,9,999999999,0,0,0,99,0.2,0,0
2023,10,8,7,60,9,31.0,26.0,75.0,101325,0,0,0,0,0,0,0,0,0,0,0,10.8,0,0,9999,77777,9,999999999,0,0,0,99,0.2,0,0
2023,10,8,8,60,9,31.5,26.4,75.0,101325,0,0,0,0,0,0,0,0,0,0,0,13.7,0,0,9999,77777,9,999999999,0,0,0,99,0.2,0,0
2023,10,8,9,60,9,31.4,26.7,76.0,101325,0,0,0,0,0,0,0,0,0,0,0,16.1,0,0,9999,77777,9,999999999,0,0,0,99,0.2,0,0
2023,10,8,10,60,9,30.7,26.9,80.0,101325,0,0,0,0,0,0,0,0,0,0,0,17.5,0,0,9999,77777,9,999999999,0,0,0,99,0.2,0,0
2023,10,8,11,60,9,30.3,26.3,79.0,101325,0,0,0,0,0,0,0,0,0,0,0,18.0,0,0,9999,77777,9,999999999,0,0,0,99,0.2,0,0
2023,10,8,12,60,9,30.1,26.0,79.0,101325,0,0,0,0,0,0,0,0,0,0,0,15.3,0,0,9999,77777,9,999999999,0,0,0,99,0.2,0,0
2023,10,8,13,60,9,29.7,26.4,82.0,101325,0,0,0,0,0,0,0,0,0,0,0,13.7,0,0,9999,77777,9,999999999,0,0,0,99,0.2,0,0
2023,10,8,14,60,9,28.4,26.0,87.0,101325,0,0,0,0,0,0,0,0,0,0,0,11.4,0,0,9999,77777,9,999999999,0,0,0,99,0.2,0,0
2023,10,8,15,60,9,27.7,25.6,88.0,101325,0,0,0,0,0,0,0,0,0,0,0,11.9,0,0,9999,77777,9,999999999,0,0,0,99,0.2,0,0
2023,10,8,16,60,9,27.4,24.6,85.0,101325,0,0,0,0,0,0,0,0,0,0,0,10.9,0,0,9999,77777,9,999999999,0,0,0,99,0.2,0,0
2023,10,8,17,60,9,27.0,24.0,84.0,101325,0,0,0,0,0,0,0,0,0,0,0,9.7,0,0,9999,77777,9,999999999,0,0,0,99,0.2,0,0
2023,10,8,18,60,9,26.2,23.7,86.0,101325,0,0,0,0,0,0,0,0,0,0,0,8.6,0,0,9999,77777,9,999999999,0,0,0,99,0.2,0,0
2023,10,8,19,60,9,25.0,23.7,92.0,101325,0,0,0,0,0,0,0,0,0,0,0,6.4,0,0,9999,77777,9,999999999,0,0,0,99,0.2,0,0
2023,10,8,20,60,9,24.6,23.4,93.0,101325,0,0,0,0,0,0,0,0,0,0,0,6.5,0,0,9999,77777,9,999999999,0,0,0,99,0.2,0,0
2023,10,8,21,60,9,24.2,23.2,94.0,101325,0,0,0,0,0,0,0,0,0,0,0,6.3,0,0,9999,77777,9,999999999,0,0,0,99,0.2,0,0
2023,10,8,22,60,9,23.9,23.0,95.0,101325,0,0,0,0,0,0,0,0,0,0,0,7.3,0,0,9999,77777,9,999999999,0,0,0,99,0.2,0,0
2023,10,8,23,60,9,23.8,22.8,94.0,101325,0,0,0,0,0,0,0,0,0,0,0,7.3,0,0,9999,77777,9,999999999,0,0,0,99,0.2,0,0
2023,10,8,24,60,9,23.9,22.8,94.0,101325,0,0,0,0,0,0,0,0,0,0,0,7.4,0,0,9999,77777,9,999999999,0,0,0,99,0.2,0,0
2023,10,9,1,60,9,25.4,23.5,89.0,101325,0,0,0,0,0,0,0,0,0,0,0,8.1,0,0,9999,77777,9,999999999,0,0,0,99,0.2,0,0
2023,10,9,2,60,9,26.1,23.2,84.0,101325,0,0,0,0,0,0,0,0,0,0,0,11.2,0,0,9999,77777,9,999999999,0,0,0,99,0.2,0,0
2023,10,9,3,60,9,26.8,24.1,85.0,101325,0,0,0,0,0,0,0,0,0,0,0,12.7,0,0,9999,77777,9,999999999,0,0,0,99,0.2,0,0
2023,10,9,4,60,9,28.2,25.6,86.0,101325,0,0,0,0,0,0,0,0,0,0,0,11.2,0,0,9999,77777,9,999999999,0,0,0,99,0.2,0,0
2023,10,9,5,60,9,29.8,26.3,82.0,101325,0,0,0,0,0,0,0,0,0,0,0,11.2,0,0,9999,77777,9,999999999,0,0,0,99,0.2,0,0
2023,10,9,6,60,9,31.2,25.8,73.0,101325,0,0,0,0,0,0,0,0,0,0,0,10.5,0,0,9999,77777,9,999999999,0,0,0,99,0.2,0,0
2023,10,9,7,60,9,32.1,25.7,69.0,101325,0,0,0,0,0,0,0,0,0,0,0,10.4,0,0,9999,77777,9,999999999,0,0,0,99,0.2,0,0
2023,10,9,8,60,9,32.3,25.9,69.0,101325,0,0,0,0,0,0,0,0,0,0,0,13.0,0,0,9999,77777,9,999999999,0,0,0,99,0.2,0,0
2023,10,9,9,60,9,32.3,25.4,67.0,101325,0,0,0,0,0,0,0,0,0,0,0,15.6,0,0,9999,77777,9,999999999,0,0,0,99,0.2,0,0
2023,10,9,10,60,9,32.0,24.3,64.0,101325,0,0,0,0,0,0,0,0,0,0,0,16.3,0,0,9999,77777,9,999999999,0,0,0,99,0.2,0,0
2023,10,9,11,60,9,31.5,23.7,63.0,101325,0,0,0,0,0,0,0,0,0,0,0,16.4,0,0,9999,77777,9,999999999,0,0,0,99,0.2,0,0
2023,10,9,12,60,9,30.5,23.7,67.0,101325,0,0,0,0,0,0,0,0,0,0,0,15.8,0,0,9999,77777,9,999999999,0,0,0,99,0.2,0,0
2023,10,9,13,60,9,29.6,26.4,83.0,101325,0,0,0,0,0,0,0,0,0,0,0,14.1,0,0,9999,77777,9,999999999,0,0,0,99,0.2,0,0
2023,10,9,14,60,9,28.5,25.1,82.0,101325,0,0,0,0,0,0,0,0,0,0,0,13.1,0,0,9999,77777,9,999999999,0,0,0,99,0.2,0,0
2023,10,9,15,60,9,27.9,24.2,81.0,101325,0,0,0,0,0,0,0,0,0,0,0,12.1,0,0,9999,77777,9,999999999,0,0,0,99,0.2,0,0
2023,10,9,16,60,9,27.4,23.3,78.0,101325,0,0,0,0,0,0,0,0,0,0,0,11.4,0,0,9999,77777,9,999999999,0,0,0,99,0.2,0,0
2023,10,9,17,60,9,26.9,22.0,75.0,101325,0,0,0,0,0,0,0,0,0,0,0,9.7,0,0,9999,77777,9,999999999,0,0,0,99,0.2,0,0
2023,10,9,18,60,9,26.3,21.5,75.0,101325,0,0,0,0,0,0,0,0,0,0,0,8.1,0,0,9999,77777,9,999999999,0,0,0,99,0.2,0,0
2023,10,9,19,60,9,25.7,21.8,79.0,101325,0,0,0,0,0,0,0,0,0,0,0,7.9,0,0,9999,77777,9,999999999,0,0,0,99,0.2,0,0
2023,10,9,20,60,9,25.3,21.6,80.0,101325,0,0,0,0,0,0,0,0,0,0,0,7.3,0,0,9999,77777,9,999999999,0,0,0,99,0.2,0,0
2023,10,9,21,60,9,24.6,21.3,82.0,101325,0,0,0,0,0,0,0,0,0,0,0,5.9,0,0,9999,77777,9,999999999,0,0,0,99,0.2,0,0
2023,10,9,22,60,9,23.7,21.0,85.0,101325,0,0,0,0,0,0,0,0,0,0,0,7.3,0,0,9999,77777,9,999999999,0,0,0,99,0.2,0,0
2023,10,9,23,60,9,24.0,20.5,81.0,101325,0,0,0,0,0,0,0,0,0,0,0,6.6,0,0,9999,77777,9,999999999,0,0,0,99,0.2,0,0
2023,10,9,24,60,9,24.7,20.8,79.0,101325,0,0,0,0,0,0,0,0,0,0,0,7.6,0,0,9999,77777,9,999999999,0,0,0,99,0.2,0,0
2023,10,10,1,60,9,24.8,22.8,89.0,101325,0,0,0,0,0,0,0,0,0,0,0,6.7,0,0,9999,77777,9,999999999,0,0,0,99,0.2,0,0
2023,10,10,2,60,9,25.3,23.4,89.0,101325,0,0,0,0,0,0,0,0,0,0,0,6.9,0,0,9999,77777,9,999999999,0,0,0,99,0.2,0,0
2023,10,10,3,60,9,26.3,24.1,88.0,101325,0,0,0,0,0,0,0,0,0,0,0,8.9,0,0,9999,77777,9,999999999,0,0,0,99,0.2,0,0
2023,10,10,4,60,9,28.0,25.0,84.0,101325,0,0,0,0,0,0,0,0,0,0,0,8.5,0,0,9999,77777,9,999999999,0,0,0,99,0.2,0,0
2023,10,10,5,60,9,29.5,25.4,78.0,101325,0,0,0,0,0,0,0,0,0,0,0,10.7,0,0,9999,77777,9,999999999,0,0,0,99,0.2,0,0
2023,10,10,6,60,9,30.8,24.7,70.0,101325,0,0,0,0,0,0,0,0,0,0,0,11.2,0,0,9999,77777,9,999999999,0,0,0,99,0.2,0,0
2023,10,10,7,60,9,31.6,24.5,66.0,101325,0,0,0,0,0,0,0,0,0,0,0,11.6,0,0,9999,77777,9,999999999,0,0,0,99,0.2,0,0
2023,10,10,8,60,9,31.9,24.6,65.0,101325,0,0,0,0,0,0,0,0,0,0,0,13.9,0,0,9999,77777,9,999999999,0,0,0,99,0.2,0,0
2023,10,10,9,60,9,31.8,24.8,66.0,101325,0,0,0,0,0,0,0,0,0,0,0,15.5,0,0,9999,77777,9,999999999,0,0,0,99,0.2,0,0
2023,10,10,10,60,9,31.6,25.0,68.0,101325,0,0,0,0,0,0,0,0,0,0,0,16.4,0,0,9999,77777,9,999999999,0,0,0,99,0.2,0,0
2023,10,10,11,60,9,31.2,24.4,67.0,101325,0,0,0,0,0,0,0,0,0,0,0,18.3,0,0,9999,77777,9,999999999,0,0,0,99,0.2,0,0
2023,10,10,12,60,9,30.3,23.7,68.0,101325,0,0,0,0,0,0,0,0,0,0,0,19.1,0,0,9999,77777,9,999999999,0,0,0,99,0.2,0,0
2023,10,10,13,60,9,29.1,23.6,72.0,101325,0,0,0,0,0,0,0,0,0,0,0,19.4,0,0,9999,77777,9,999999999,0,0,0,99,0.2,0,0
2023,10,10,14,60,9,28.1,23.2,75.0,101325,0,0,0,0,0,0,0,0,0,0,0,18.2,0,0,9999,77777,9,999999999,0,0,0,99,0.2,0,0
2023,10,10,15,60,9,27.8,22.8,74.0,101325,0,0,0,0,0,0,0,0,0,0,0,16.9,0,0,9999,77777,9,999999999,0,0,0,99,0.2,0,0
2023,10,10,16,60,9,27.3,22.1,73.0,101325,0,0,0,0,0,0,0,0,0,0,0,12.2,0,0,9999,77777,9,999999999,0,0,0,99,0.2,0,0
2023,10,10,17,60,9,26.7,21.5,73.0,101325,0,0,0,0,0,0,0,0,0,0,0,9.4,0,0,9999,77777,9,999999999,0,0,0,99,0.2,0,0
2023,10,10,18,60,9,25.8,20.9,74.0,101325,0,0,0,0,0,0,0,0,0,0,0,6.9,0,0,9999,77777,9,999999999,0,0,0,99,0.2,0,0
2023,10,10,19,60,9,25.4,20.2,73.0,101325,0,0,0,0,0,0,0,0,0,0,0,7.6,0,0,9999,77777,9,999999999,0,0,0,99,0.2,0,0
2023,10,10,20,60,9,25.0,19.7,72.0,101325,0,0,0,0,0,0,0,0,0,0,0,7.7,0,0,9999,77777,9,999999999,0,0,0,99,0.2,0,0
2023,10,10,21,60,9,25.2,19.9,72.0,101325,0,0,0,0,0,0,0,0,0,0,0,10.1,0,0,9999,77777,9,999999999,0,0,0,99,0.2,0,0
2023,10,10,22,60,9,25.2,21.1,78.0,101325,0,0,0,0,0,0,0,0,0,0,0,10.1,0,0,9999,77777,9,999999999,0,0,0,99,0.2,0,0
2023,10,10,23,60,9,25.0,22.1,84.0,101325,0,0,0,0,0,0,0,0,0,0,0,9.7,0,0,9999,77777,9,999999999,0,0,0,99,0.2,0,0
2023,10,10,24,60,9,24.9,22.5,87.0,101325,0,0,0,0,0,0,0,0,0,0,0,9.8,0,0,9999,77777,9,999999999,0,0,0,99,0.2,0,0
2023,10,11,1,60,9,25.0,23.4,91.0,101325,0,0,0,0,0,0,0,0,0,0,0,8.4,0,0,9999,77777,9,999999999,0,0,0,99,0.2,0,0
2023,10,11,2,60,9,25.1,23.5,91.0,101325,0,0,0,0,0,0,0,0,0,0,0,8.4,0,0,9999,77777,9,999999999,0,0,0,99,0.2,0,0
2023,10,11,3,60,9,25.8,24.0,90.0,101325,0,0,0,0,0,0,0,0,0,0,0,9.6,0,0,9999,77777,9,999999999,0,0,0,99,0.2,0,0
2023,10,11,4,60,9,27.3,24.9,87.0,101325,0,0,0,0,0,0,0,0,0,0,0,9.1,0,0,9999,77777,9,999999999,0,0,0,99,0.2,0,0
2023,10,11,5,60,9,28.9,25.3,81.0,101325,0,0,0,0,0,0,0,0,0,0,0,9.4,0,0,9999,77777,9,999999999,0,0,0,99,0.2,0,0
2023,10,11,6,60,9,30.5,24.7,71.0,101325,0,0,0,0,0,0,0,0,0,0,0,10.6,0,0,9999,77777,9,999999999,0,0,0,99,0.2,0,0
2023,10,11,7,60,9,31.2,24.2,66.0,101325,0,0,0,0,0,0,0,0,0,0,0,13.5,0,0,9999,77777,9,999999999,0,0,0,99,0.2,0,0
2023,10,11,8,60,9,31.2,25.0,70.0,101325,0,0,0,0,0,0,0,0,0,0,0,16.1,0,0,9999,77777,9,999999999,0,0,0,99,0.2,0,0
2023,10,11,9,60,9,30.6,24.9,72.0,101325,0,0,0,0,0,0,0,0,0,0,0,19.5,0,0,9999,77777,9,999999999,0,0,0,99,0.2,0,0
2023,10,11,10,60,9,30.4,24.3,70.0,101325,0,0,0,0,0,0,0,0,0,0,0,20.3,0,0,9999,77777,9,999999999,0,0,0,99,0.2,0,0
2023,10,11,11,60,9,30.1,24.5,72.0,101325,0,0,0,0,0,0,0,0,0,0,0,19.0,0,0,9999,77777,9,999999999,0,0,0,99,0.2,0,0
2023,10,11,12,60,9,29.5,24.5,74.0,101325,0,0,0,0,0,0,0,0,0,0,0,18.5,0,0,9999,77777,9,999999999,0,0,0,99,0.2,0,0
2023,10,11,13,60,9,29.3,25.0,78.0,101325,0,0,0,0,0,0,0,0,0,0,0,18.3,0,0,9999,77777,9,999999999,0,0,0,99,0.2,0,0
2023,10,11,14,60,9,28.3,25.0,82.0,101325,0,0,0,0,0,0,0,0,0,0,0,16.8,0,0,9999,77777,9,999999999,0,0,0,99,0.2,0,0
2023,10,11,15,60,9,27.9,25.2,85.0,101325,0,0,0,0,0,0,0,0,0,0,0,16.3,0,0,9999,77777,9,999999999,0,0,0,99,0.2,0,0
2023,10,11,16,60,9,27.5,25.1,87.0,101325,0,0,0,0,0,0,0,0,0,0,0,13.3,0,0,9999,77777,9,999999999,0,0,0,99,0.2,0,0
2023,10,11,17,60,9,26.9,25.2,90.0,101325,0,0,0,0,0,0,0,0,0,0,0,9.4,0,0,9999,77777,9,999999999,0,0,0,99,0.2,0,0
2023,10,11,18,60,9,26.3,24.8,91.0,101325,0,0,0,0,0,0,0,0,0,0,0,7.2,0,0,9999,77777,9,999999999,0,0,0,99,0.2,0,0
2023,10,11,19,60,9,25.7,24.2,91.0,101325,0,0,0,0,0,0,0,0,0,0,0,6.2,0,0,9999,77777,9,999999999,0,0,0,99,0.2,0,0
2023,10,11,20,60,9,25.4,23.7,90.0,101325,0,0,0,0,0,0,0,0,0,0,0,6.1,0,0,9999,77777,9,999999999,0,0,0,99,0.2,0,0
2023,10,11,21,60,9,24.8,23.5,92.0,101325,0,0,0,0,0,0,0,0,0,0,0,5.2,0,0,9999,77777,9,999999999,0,0,0,99,0.2,0,0
2023,10,11,22,60,9,23.9,23.0,94.0,101325,0,0,0,0,0,0,0,0,0,0,0,6.7,0,0,9999,77777,9,999999999,0,0,0,99,0.2,0,0
2023,10,11,23,60,9,24.2,23.0,93.0,101325,0,0,0,0,0,0,0,0,0,0,0,5.4,0,0,9999,77777,9,999999999,0,0,0,99,0.2,0,0
2023,10,11,24,60,9,24.5,23.3,93.0,101325,0,0,0,0,0,0,0,0,0,0,0,7.2,0,0,9999,77777,9,999999999,0,0,0,99,0.2,0,0
2023,10,12,1,60,9,25.2,23.7,91.0,101325,0,0,0,0,0,0,0,0,0,0,0,9.1,0,0,9999,77777,9,999999999,0,0,0,99,0.2,0,0
2023,10,12,2,60,9,25.6,24.3,93.0,101325,0,0,0,0,0,0,0,0,0,0,0,9.7,0,0,9999,77777,9,999999999,0,0,0,99,0.2,0,0
2023,10,12,3,60,9,26.4,24.7,90.0,101325,0,0,0,0,0,0,0,0,0,0,0,9.1,0,0,9999,77777,9,999999999,0,0,0,99,0.2,0,0
2023,10,12,4,60,9,27.8,25.2,86.0,101325,0,0,0,0,0,0,0,0,0,0,0,9.0,0,0,9999,77777,9,999999999,0,0,0,99,0.2,0,0
2023,10,12,5,60,9,29.4,25.2,78.0,101325,0,0,0,0,0,0,0,0,0,0,0,10.7,0,0,9999,77777,9,999999999,0,0,0,99,0.2,0,0
2023,10,12,6,60,9,30.5,25.2,73.0,101325,0,0,0,0,0,0,0,0,0,0,0,10.2,0,0,9999,77777,9,999999999,0,0,0,99,0.2,0,0
2023,10,12,7,60,9,31.2,26.0,74.0,101325,0,0,0,0,0,0,0,0,0,0,0,11.6,0,0,9999,77777,9,999999999,0,0,0,99,0.2,0,0
2023,10,12,8,60,9,31.5,26.6,75.0,101325,0,0,0,0,0,0,0,0,0,0,0,13.8,0,0,9999,77777,9,999999999,0,0,0,99,0.2,0,0
2023,10,12,9,60,9,31.5,26.6,75.0,101325,0,0,0,0,0,0,0,0,0,0,0,16.5,0,0,9999,77777,9,999999999,0,0,0,99,0.2,0,0
2023,10,12,10,60,9,31.2,26.1,74.0,101325,0,0,0,0,0,0,0,0,0,0,0,16.6,0,0,9999,77777,9,999999999,0,0,0,99,0.2,0,0
2023,10,12,11,60,9,31.0,25.4,72.0,101325,0,0,0,0,0,0,0,0,0,0,0,16.1,0,0,9999,77777,9,999999999,0,0,0,99,0.2,0,0
2023,10,12,12,60,9,30.5,25.2,73.0,101325,0,0,0,0,0,0,0,0,0,0,0,13.5,0,0,9999,77777,9,999999999,0,0,0,99,0.2,0,0
2023,10,12,13,60,9,29.7,26.1,81.0,101325,0,0,0,0,0,0,0,0,0,0,0,16.3,0,0,9999,77777,9,999999999,0,0,0,99,0.2,0,0
2023,10,12,14,60,9,28.8,25.8,84.0,101325,0,0,0,0,0,0,0,0,0,0,0,15.1,0,0,9999,77777,9,999999999,0,0,0,99,0.2,0,0
2023,10,12,15,60,9,28.5,25.7,85.0,101325,0,0,0,0,0,0,0,0,0,0,0,11.7,0,0,9999,77777,9,999999999,0,0,0,99,0.2,0,0
2023,10,12,16,60,9,28.1,25.8,87.0,101325,0,0,0,0,0,0,0,0,0,0,0,11.3,0,0,9999,77777,9,999999999,0,0,0,99,0.2,0,0
2023,10,12,17,60,9,27.7,25.8,89.0,101325,0,0,0,0,0,0,0,0,0,0,0,9.0,0,0,9999,77777,9,999999999,0,0,0,99,0.2,0,0
2023,10,12,18,60,9,27.0,25.0,89.0,101325,0,0,0,0,0,0,0,0,0,0,0,5.9,0,0,9999,77777,9,999999999,0,0,0,99,0.2,0,0
2023,10,12,19,60,9,26.0,24.6,92.0,101325,0,0,0,0,0,0,0,0,0,0,0,6.5,0,0,9999,77777,9,999999999,0,0,0,99,0.2,0,0
2023,10,12,20,60,9,26.6,24.3,87.0,101325,0,0,0,0,0,0,0,0,0,0,0,3.7,0,0,9999,77777,9,999999999,0,0,0,99,0.2,0,0
2023,10,12,21,60,9,26.0,24.3,90.0,101325,0,0,0,0,0,0,0,0,0,0,0,3.4,0,0,9999,77777,9,999999999,0,0,0,99,0.2,0,0
2023,10,12,22,60,9,25.7,24.5,93.0,101325,0,0,0,0,0,0,0,0,0,0,0,4.6,0,0,9999,77777,9,999999999,0,0,0,99,0.2,0,0
2023,10,12,23,60,9,26.2,24.8,92.0,101325,0,0,0,0,0,0,0,0,0,0,0,6.6,0,0,9999,77777,9,999999999,0,0,0,99,0.2,0,0
2023,10,12,24,60,9,26.1,24.9,93.0,101325,0,0,0,0,0,0,0,0,0,0,0,6.8,0,0,9999,77777,9,999999999,0,0,0,99,0.2,0,0
2023,10,13,1,60,9,25.7,25.2,97.0,101325,0,0,0,0,0,0,0,0,0,0,0,4.0,0,0,9999,77777,9,999999999,0,0,0,99,0.2,0,0
2023,10,13,2,60,9,25.9,25.1,95.0,101325,0,0,0,0,0,0,0,0,0,0,0,5.0,0,0,9999,77777,9,999999999,0,0,0,99,0.2,0,0
2023,10,13,3,60,9,26.2,25.3,95.0,101325,0,0,0,0,0,0,0,0,0,0,0,5.3,0,0,9999,77777,9,999999999,0,0,0,99,0.2,0,0
2023,10,13,4,60,9,28.0,25.9,88.0,101325,0,0,0,0,0,0,0,0,0,0,0,5.9,0,0,9999,77777,9,999999999,0,0,0,99,0.2,0,0
2023,10,13,5,60,9,30.2,25.4,76.0,101325,0,0,0,0,0,0,0,0,0,0,0,7.9,0,0,9999,77777,9,999999999,0,0,0,99,0.2,0,0
2023,10,13,6,60,9,31.8,24.9,67.0,101325,0,0,0,0,0,0,0,0,0,0,0,8.0,0,0,9999,77777,9,999999999,0,0,0,99,0.2,0,0
2023,10,13,7,60,9,32.8,25.2,64.0,101325,0,0,0,0,0,0,0,0,0,0,0,5.9,0,0,9999,77777,9,999999999,0,0,0,99,0.2,0,0
2023,10,13,8,60,9,33.1,25.5,64.0,101325,0,0,0,0,0,0,0,0,0,0,0,5.9,0,0,9999,77777,9,999999999,0,0,0,99,0.2,0,0
2023,10,13,9,60,9,32.8,26.0,67.0,101325,0,0,0,0,0,0,0,0,0,0,0,9.7,0,0,9999,77777,9,999999999,0,0,0,99,0.2,0,0
2023,10,13,10,60,9,32.1,27.4,76.0,101325,0,0,0,0,0,0,0,0,0,0,0,13.2,0,0,9999,77777,9,999999999,0,0,0,99,0.2,0,0
2023,10,13,11,60,9,31.9,27.6,78.0,101325,0,0,0,0,0,0,0,0,0,0,0,13.5,0,0,9999,77777,9,999999999,0,0,0,99,0.2,0,0
2023,10,13,12,60,9,31.0,27.0,79.0,101325,0,0,0,0,0,0,0,0,0,0,0,14.3,0,0,9999,77777,9,999999999,0,0,0,99,0.2,0,0
2023,10,13,13,60,9,29.8,26.2,81.0,101325,0,0,0,0,0,0,0,0,0,0,0,17.2,0,0,9999,77777,9,999999999,0,0,0,99,0.2,0,0
2023,10,13,14,60,9,28.8,25.9,84.0,101325,0,0,0,0,0,0,0,0,0,0,0,15.8,0,0,9999,77777,9,999999999,0,0,0,99,0.2,0,0
2023,10,13,15,60,9,28.5,26.5,89.0,101325,0,0,0,0,0,0,0,0,0,0,0,14.8,0,0,9999,77777,9,999999999,0,0,0,99,0.2,0,0
2023,10,13,16,60,9,28.2,26.5,91.0,101325,0,0,0,0,0,0,0,0,0,0,0,10.3,0,0,9999,77777,9,999999999,0,0,0,99,0.2,0,0
2023,10,13,17,60,9,27.7,26.4,93.0,101325,0,0,0,0,0,0,0,0,0,0,0,8.0,0,0,9999,77777,9,999999999,0,0,0,99,0.2,0,0
2023,10,13,18,60,9,27.2,26.0,93.0,101325,0,0,0,0,0,0,0,0,0,0,0,7.5,0,0,9999,77777,9,999999999,0,0,0,99,0.2,0,0
2023,10,13,19,60,9,26.4,25.2,93.0,101325,0,0,0,0,0,0,0,0,0,0,0,5.1,0,0,9999,77777,9,999999999,0,0,0,99,0.2,0,0
2023,10,13,20,60,9,26.3,24.7,91.0,101325,0,0,0,0,0,0,0,0,0,0,0,5.9,0,0,9999,77777,9,999999999,0,0,0,99,0.2,0,0
2023,10,13,21,60,9,25.3,24.3,94.0,101325,0,0,0,0,0,0,0,0,0,0,0,5.4,0,0,9999,77777,9,999999999,0,0,0,99,0.2,0,0
2023,10,13,22,60,9,24.9,24.1,96.0,101325,0,0,0,0,0,0,0,0,0,0,0,6.0,0,0,9999,77777,9,999999999,0,0,0,99,0.2,0,0
2023,10,13,23,60,9,25.2,24.2,94.0,101325,0,0,0,0,0,0,0,0,0,0,0,4.8,0,0,9999,77777,9,999999999,0,0,0,99,0.2,0,0
2023,10,13,24,60,9,26.4,24.2,88.0,101325,0,0,0,0,0,0,0,0,0,0,0,0.8,0,0,9999,77777,9,999999999,0,0,0,99,0.2,0,0
2023,10,14,1,60,9,25.4,23.7,90.0,101325,0,0,0,0,0,0,0,0,0,0,0,3.4,0,0,9999,77777,9,999999999,0,0,0,99,0.2,0,0
2023,10,14,2,60,9,25.2,23.9,93.0,101325,0,0,0,0,0,0,0,0,0,0,0,4.5,0,0,9999,77777,9,999999999,0,0,0,99,0.2,0,0
2023,10,14,3,60,9,25.4,24.2,93.0,101325,0,0,0,0,0,0,0,0,0,0,0,5.3,0,0,9999,77777,9,999999999,0,0,0,99,0.2,0,0
2023,10,14,4,60,9,26.9,25.6,92.0,101325,0,0,0,0,0,0,0,0,0,0,0,5.4,0,0,9999,77777,9,999999999,0,0,0,99,0.2,0,0
2023,10,14,5,60,9,29.7,25.2,77.0,101325,0,0,0,0,0,0,0,0,0,0,0,4.8,0,0,9999,77777,9,999999999,0,0,0,99,0.2,0,0
2023,10,14,6,60,9,31.4,24.7,68.0,101325,0,0,0,0,0,0,0,0,0,0,0,4.3,0,0,9999,77777,9,999999999,0,0,0,99,0.2,0,0
2023,10,14,7,60,9,32.2,24.7,64.0,101325,0,0,0,0,0,0,0,0,0,0,0,2.8,0,0,9999,77777,9,999999999,0,0,0,99,0.2,0,0
2023,10,14,8,60,9,32.6,25.3,65.0,101325,0,0,0,0,0,0,0,0,0,0,0,4.6,0,0,9999,77777,9,999999999,0,0,0,99,0.2,0,0
2023,10,14,9,60,9,32.5,26.1,69.0,101325,0,0,0,0,0,0,0,0,0,0,0,5.5,0,0,9999,77777,9,999999999,0,0,0,99,0.2,0,0
2023,10,14,10,60,9,32.0,26.6,73.0,101325,0,0,0,0,0,0,0,0,0,0,0,9.3,0,0,9999,77777,9,999999999,0,0,0,99,0.2,0,0
2023,10,14,11,60,9,31.7,26.7,75.0,101325,0,0,0,0,0,0,0,0,0,0,0,10.1,0,0,9999,77777,9,999999999,0,0,0,99,0.2,0,0
2023,10,14,12,60,9,31.0,26.4,77.0,101325,0,0,0,0,0,0,0,0,0,0,0,14.0,0,0,9999,77777,9,999999999,0,0,0,99,0.2,0,0
2023,10,14,13,60,9,30.1,26.5,81.0,101325,0,0,0,0,0,0,0,0,0,0,0,10.8,0,0,9999,77777,9,999999999,0,0,0,99,0.2,0,0
2023,10,14,14,60,9,28.9,26.6,87.0,101325,0,0,0,0,0,0,0,0,0,0,0,14.2,0,0,9999,77777,9,999999999,0,0,0,99,0.2,0,0
2023,10,14,15,60,9,28.5,26.5,89.0,101325,0,0,0,0,0,0,0,0,0,0,0,13.8,0,0,9999,77777,9,999999999,0,0,0,99,0.2,0,0
2023,10,14,16,60,9,28.2,26.6,91.0,101325,0,0,0,0,0,0,0,0,0,0,0,12.5,0,0,9999,77777,9,999999999,0,0,0,99,0.2,0,0
2023,10,14,17,60,9,28.0,26.8,93.0,101325,0,0,0,0,0,0,0,0,0,0,0,10.8,0,0,9999,77777,9,999999999,0,0,0,99,0.2,0,0
2023,10,14,18,60,9,27.4,26.6,96.0,101325,0,0,0,0,0,0,0,0,0,0,0,8.7,0,0,9999,77777,9,999999999,0,0,0,99,0.2,0,0
2023,10,14,19,60,9,27.0,26.4,96.0,101325,0,0,0,0,0,0,0,0,0,0,0,6.9,0,0,9999,77777,9,999999999,0,0,0,99,0.2,0,0
2023,10,14,20,60,9,26.6,26.1,97.0,101325,0,0,0,0,0,0,0,0,0,0,0,6.1,0,0,9999,77777,9,999999999,0,0,0,99,0.2,0,0
2023,10,14,21,60,9,26.1,25.7,98.0,101325,0,0,0,0,0,0,0,0,0,0,0,5.1,0,0,9999,77777,9,999999999,0,0,0,99,0.2,0,0
2023,10,14,22,60,9,25.4,25.1,98.0,101325,0,0,0,0,0,0,0,0,0,0,0,4.9,0,0,9999,77777,9,999999999,0,0,0,99,0.2,0,0
2023,10,14,23,60,9,26.0,25.4,96.0,101325,0,0,0,0,0,0,0,0,0,0,0,2.4,0,0,9999,77777,9,999999999,0,0,0,99,0.2,0,0
2023,10,14,24,60,9,25.2,24.8,98.0,101325,0,0,0,0,0,0,0,0,0,0,0,4.3,0,0,9999,77777,9,999999999,0,0,0,99,0.2,0,0
2023,10,15,1,60,9,26.2,26.1,99.0,101325,0,0,0,0,0,0,0,0,0,0,0,4.4,0,0,9999,77777,9,999999999,0,0,0,99,0.2,0,0
2023,10,15,2,60,9,26.9,26.6,99.0,101325,0,0,0,0,0,0,0,0,0,0,0,4.0,0,0,9999,77777,9,999999999,0,0,0,99,0.2,0,0
2023,10,15,3,60,9,27.3,27.2,99.0,101325,0,0,0,0,0,0,0,0,0,0,0,7.2,0,0,9999,77777,9,999999999,0,0,0,99,0.2,0,0
2023,10,15,4,60,9,28.7,27.4,93.0,101325,0,0,0,0,0,0,0,0,0,0,0,11.0,0,0,9999,77777,9,999999999,0,0,0,99,0.2,0,0
2023,10,15,5,60,9,30.5,26.9,81.0,101325,0,0,0,0,0,0,0,0,0,0,0,9.0,0,0,9999,77777,9,999999999,0,0,0,99,0.2,0,0
2023,10,15,6,60,9,31.6,27.0,77.0,101325,0,0,0,0,0,0,0,0,0,0,0,6.5,0,0,9999,77777,9,999999999,0,0,0,99,0.2,0,0
2023,10,15,7,60,9,32.9,25.7,66.0,101325,0,0,0,0,0,0,0,0,0,0,0,6.9,0,0,9999,77777,9,999999999,0,0,0,99,0.2,0,0
2023,10,15,8,60,9,33.4,24.5,60.0,101325,0,0,0,0,0,0,0,0,0,0,0,6.8,0,0,9999,77777,9,999999999,0,0,0,99,0.2,0,0
2023,10,15,9,60,9,32.6,26.9,72.0,101325,0,0,0,0,0,0,0,0,0,0,0,10.5,0,0,9999,77777,9,999999999,0,0,0,99,0.2,0,0
2023,10,15,10,60,9,30.8,26.4,77.0,101325,0,0,0,0,0,0,0,0,0,0,0,19.2,0,0,9999,77777,9,999999999,0,0,0,99,0.2,0,0
2023,10,15,11,60,9,31.2,25.6,72.0,101325,0,0,0,0,0,0,0,0,0,0,0,13.3,0,0,9999,77777,9,999999999,0,0,0,99,0.2,0,0
2023,10,15,12,60,9,31.2,25.3,71.0,101325,0,0,0,0,0,0,0,0,0,0,0,12.3,0,0,9999,77777,9,999999999,0,0,0,99,0.2,0,0
2023,10,15,13,60,9,30.3,26.4,79.0,101325,0,0,0,0,0,0,0,0,0,0,0,13.5,0,0,9999,77777,9,999999999,0,0,0,99,0.2,0,0
2023,10,15,14,60,9,29.1,25.6,81.0,101325,0,0,0,0,0,0,0,0,0,0,0,11.8,0,0,9999,77777,9,999999999,0,0,0,99,0.2,0,0
2023,10,15,15,60,9,28.7,25.3,82.0,101325,0,0,0,0,0,0,0,0,0,0,0,12.9,0,0,9999,77777,9,999999999,0,0,0,99,0.2,0,0
2023,10,15,16,60,9,28.3,25.0,82.0,101325,0,0,0,0,0,0,0,0,0,0,0,11.3,0,0,9999,77777,9,999999999,0,0,0,99,0.2,0,0
2023,10,15,17,60,9,27.7,23.9,80.0,101325,0,0,0,0,0,0,0,0,0,0,0,7.6,0,0,9999,77777,9,999999999,0,0,0,99,0.2,0,0
2023,10,15,18,60,9,25.9,23.4,86.0,101325,0,0,0,0,0,0,0,0,0,0,0,7.9,0,0,9999,77777,9,999999999,0,0,0,99,0.2,0,0
2023,10,15,19,60,9,25.7,22.9,85.0,101325,0,0,0,0,0,0,0,0,0,0,0,6.9,0,0,9999,77777,9,999999999,0,0,0,99,0.2,0,0
2023,10,15,20,60,9,27.2,22.1,74.0,101325,0,0,0,0,0,0,0,0,0,0,0,1.8,0,0,9999,77777,9,999999999,0,0,0,99,0.2,0,0
2023,10,15,21,60,9,25.8,22.7,83.0,101325,0,0,0,0,0,0,0,0,0,0,0,3.6,0,0,9999,77777,9,999999999,0,0,0,99,0.2,0,0
2023,10,15,22,60,9,24.7,22.9,89.0,101325,0,0,0,0,0,0,0,0,0,0,0,5.8,0,0,9999,77777,9,999999999,0,0,0,99,0.2,0,0
2023,10,15,23,60,9,24.2,22.5,91.0,101325,0,0,0,0,0,0,0,0,0,0,0,5.6,0,0,9999,77777,9,999999999,0,0,0,99,0.2,0,0
2023,10,15,24,60,9,23.9,21.7,88.0,101325,0,0,0,0,0,0,0,0,0,0,0,4.7,0,0,9999,77777,9,999999999,0,0,0,99,0.2,0,0
2023,10,16,1,60,9,24.7,21.7,83.0,101325,0,0,0,0,0,0,0,0,0,0,0,5.5,0,0,9999,77777,9,999999999,0,0,0,99,0.2,0,0
2023,10,16,2,60,9,25.1,22.1,84.0,101325,0,0,0,0,0,0,0,0,0,0,0,4.7,0,0,9999,77777,9,999999999,0,0,0,99,0.2,0,0
2023,10,16,3,60,9,26.2,22.2,79.0,101325,0,0,0,0,0,0,0,0,0,0,0,5.4,0,0,9999,77777,9,999999999,0,0,0,99,0.2,0,0
2023,10,16,4,60,9,29.0,23.3,71.0,101325,0,0,0,0,0,0,0,0,0,0,0,5.8,0,0,9999,77777,9,999999999,0,0,0,99,0.2,0,0
2023,10,16,5,60,9,30.1,23.8,69.0,101325,0,0,0,0,0,0,0,0,0,0,0,9.2,0,0,9999,77777,9,999999999,0,0,0,99,0.2,0,0
2023,10,16,6,60,9,31.1,23.8,65.0,101325,0,0,0,0,0,0,0,0,0,0,0,1.6,0,0,9999,77777,9,999999999,0,0,0,99,0.2,0,0
2023,10,16,7,60,9,32.1,24.1,63.0,101325,0,0,0,0,0,0,0,0,0,0,0,3.4,0,0,9999,77777,9,999999999,0,0,0,99,0.2,0,0
2023,10,16,8,60,9,32.7,24.1,61.0,101325,0,0,0,0,0,0,0,0,0,0,0,7.2,0,0,9999,77777,9,999999999,0,0,0,99,0.2,0,0
2023,10,16,9,60,9,33.0,24.4,61.0,101325,0,0,0,0,0,0,0,0,0,0,0,7.0,0,0,9999,77777,9,999999999,0,0,0,99,0.2,0,0
2023,10,16,10,60,9,32.8,24.8,63.0,101325,0,0,0,0,0,0,0,0,0,0,0,9.2,0,0,9999,77777,9,999999999,0,0,0,99,0.2,0,0
2023,10,16,11,60,9,31.2,23.8,65.0,101325,0,0,0,0,0,0,0,0,0,0,0,15.5,0,0,9999,77777,9,999999999,0,0,0,99,0.2,0,0
2023,10,16,12,60,9,31.6,23.5,62.0,101325,0,0,0,0,0,0,0,0,0,0,0,10.6,0,0,9999,77777,9,999999999,0,0,0,99,0.2,0,0
2023,10,16,13,60,9,31.3,23.6,64.0,101325,0,0,0,0,0,0,0,0,0,0,0,11.8,0,0,9999,77777,9,999999999,0,0,0,99,0.2,0,0
2023,10,16,14,60,9,30.0,21.0,59.0,101325,0,0,0,0,0,0,0,0,0,0,0,12.4,0,0,9999,77777,9,999999999,0,0,0,99,0.2,0,0
2023,10,16,15,60,9,29.3,22.3,66.0,101325,0,0,0,0,0,0,0,0,0,0,0,11.8,0,0,9999,77777,9,999999999,0,0,0,99,0.2,0,0
2023,10,16,16,60,9,28.9,21.5,64.0,101325,0,0,0,0,0,0,0,0,0,0,0,10.0,0,0,9999,77777,9,999999999,0,0,0,99,0.2,0,0
2023,10,16,17,60,9,28.1,20.8,64.0,101325,0,0,0,0,0,0,0,0,0,0,0,8.7,0,0,9999,77777,9,999999999,0,0,0,99,0.2,0,0
2023,10,16,18,60,9,27.4,20.7,67.0,101325,0,0,0,0,0,0,0,0,0,0,0,6.9,0,0,9999,77777,9,999999999,0,0,0,99,0.2,0,0
2023,10,16,19,60,9,27.5,20.5,66.0,101325,0,0,0,0,0,0,0,0,0,0,0,8.6,0,0,9999,77777,9,999999999,0,0,0,99,0.2,0,0
2023,10,16,20,60,9,27.4,20.3,65.0,101325,0,0,0,0,0,0,0,0,0,0,0,8.0,0,0,9999,77777,9,999999999,0,0,0,99,0.2,0,0
2023,10,16,21,60,9,26.5,20.2,69.0,101325,0,0,0,0,0,0,0,0,0,0,0,6.3,0,0,9999,77777,9,999999999,0,0,0,99,0.2,0,0
2023,10,16,22,60,9,25.7,20.1,71.0,101325,0,0,0,0,0,0,0,0,0,0,0,5.8,0,0,9999,77777,9,999999999,0,0,0,99,0.2,0,0
2023,10,16,23,60,9,25.5,19.4,69.0,101325,0,0,0,0,0,0,0,0,0,0,0,7.1,0,0,9999,77777,9,999999999,0,0,0,99,0.2,0,0
2023,10,16,24,60,9,25.2,19.1,69.0,101325,0,0,0,0,0,0,0,0,0,0,0,7.9,0,0,9999,77777,9,999999999,0,0,0,99,0.2,0,0
2023,10,17,1,60,9,25.0,21.1,79.0,101325,0,0,0,0,0,0,0,0,0,0,0,6.3,0,0,9999,77777,9,999999999,0,0,0,99,0.2,0,0
2023,10,17,2,60,9,25.6,20.8,75.0,101325,0,0,0,0,0,0,0,0,0,0,0,7.1,0,0,9999,77777,9,999999999,0,0,0,99,0.2,0,0
2023,10,17,3,60,9,26.4,21.6,75.0,101325,0,0,0,0,0,0,0,0,0,0,0,7.9,0,0,9999,77777,9,999999999,0,0,0,99,0.2,0,0
2023,10,17,4,60,9,27.9,23.0,75.0,101325,0,0,0,0,0,0,0,0,0,0,0,9.3,0,0,9999,77777,9,999999999,0,0,0,99,0.2,0,0
2023,10,17,5,60,9,29.8,24.1,72.0,101325,0,0,0,0,0,0,0,0,0,0,0,5.4,0,0,9999,77777,9,999999999,0,0,0,99,0.2,0,0
2023,10,17,6,60,9,30.8,25.2,72.0,101325,0,0,0,0,0,0,0,0,0,0,0,6.6,0,0,9999,77777,9,999999999,0,0,0,99,0.2,0,0
2023,10,17,7,60,9,31.2,25.5,72.0,101325,0,0,0,0,0,0,0,0,0,0,0,9.5,0,0,9999,77777,9,999999999,0,0,0,99,0.2,0,0
2023,10,17,8,60,9,31.1,26.1,75.0,101325,0,0,0,0,0,0,0,0,0,0,0,6.6,0,0,9999,77777,9,999999999,0,0,0,99,0.2,0,0
2023,10,17,9,60,9,32.1,25.2,67.0,101325,0,0,0,0,0,0,0,0,0,0,0,3.0,0,0,9999,77777,9,999999999,0,0,0,99,0.2,0,0
2023,10,17,10,60,9,32.2,25.1,66.0,101325,0,0,0,0,0,0,0,0,0,0,0,5.4,0,0,9999,77777,9,999999999,0,0,0,99,0.2,0,0
2023,10,17,11,60,9,31.9,25.7,70.0,101325,0,0,0,0,0,0,0,0,0,0,0,6.1,0,0,9999,77777,9,999999999,0,0,0,99,0.2,0,0
2023,10,17,12,60,9,30.7,25.0,72.0,101325,0,0,0,0,0,0,0,0,0,0,0,4.7,0,0,9999,77777,9,999999999,0,0,0,99,0.2,0,0
2023,10,17,13,60,9,30.6,26.8,80.0,101325,0,0,0,0,0,0,0,0,0,0,0,7.7,0,0,9999,77777,9,999999999,0,0,0,99,0.2,0,0
2023,10,17,14,60,9,28.8,26.5,87.0,101325,0,0,0,0,0,0,0,0,0,0,0,7.2,0,0,9999,77777,9,999999999,0,0,0,99,0.2,0,0
2023,10,17,15,60,9,28.2,25.8,87.0,101325,0,0,0,0,0,0,0,0,0,0,0,8.0,0,0,9999,77777,9,999999999,0,0,0,99,0.2,0,0
2023,10,17,16,60,9,27.4,25.2,88.0,101325,0,0,0,0,0,0,0,0,0,0,0,5.9,0,0,9999,77777,9,999999999,0,0,0,99,0.2,0,0
2023,10,17,17,60,9,27.2,24.4,85.0,101325,0,0,0,0,0,0,0,0,0,0,0,7.3,0,0,9999,77777,9,999999999,0,0,0,99,0.2,0,0
2023,10,17,18,60,9,26.8,22.5,77.0,101325,0,0,0,0,0,0,0,0,0,0,0,6.8,0,0,9999,77777,9,999999999,0,0,0,99,0.2,0,0
2023,10,17,19,60,9,26.6,22.2,77.0,101325,0,0,0,0,0,0,0,0,0,0,0,8.0,0,0,9999,77777,9,999999999,0,0,0,99,0.2,0,0
2023,10,17,20,60,9,25.3,22.2,83.0,101325,0,0,0,0,0,0,0,0,0,0,0,5.5,0,0,9999,77777,9,999999999,0,0,0,99,0.2,0,0
2023,10,17,21,60,9,24.7,22.3,87.0,101325,0,0,0,0,0,0,0,0,0,0,0,6.3,0,0,9999,77777,9,999999999,0,0,0,99,0.2,0,0
2023,10,17,22,60,9,24.3,22.6,90.0,101325,0,0,0,0,0,0,0,0,0,0,0,6.1,0,0,9999,77777,9,999999999,0,0,0,99,0.2,0,0
2023,10,17,23,60,9,24.6,22.3,87.0,101325,0,0,0,0,0,0,0,0,0,0,0,4.8,0,0,9999,77777,9,999999999,0,0,0,99,0.2,0,0
2023,10,17,24,60,9,24.5,21.6,84.0,101325,0,0,0,0,0,0,0,0,0,0,0,5.6,0,0,9999,77777,9,999999999,0,0,0,99,0.2,0,0
2023,10,18,1,60,9,24.9,24.0,95.0,101325,0,0,0,0,0,0,0,0,0,0,0,6.0,0,0,9999,77777,9,999999999,0,0,0,99,0.2,0,0
2023,10,18,2,60,9,25.2,23.8,92.0,101325,0,0,0,0,0,0,0,0,0,0,0,7.4,0,0,9999,77777,9,999999999,0,0,0,99,0.2,0,0
2023,10,18,3,60,9,26.0,24.0,88.0,101325,0,0,0,0,0,0,0,0,0,0,0,6.5,0,0,9999,77777,9,999999999,0,0,0,99,0.2,0,0
2023,10,18,4,60,9,28.2,25.1,84.0,101325,0,0,0,0,0,0,0,0,0,0,0,5.4,0,0,9999,77777,9,999999999,0,0,0,99,0.2,0,0
2023,10,18,5,60,9,30.3,25.4,75.0,101325,0,0,0,0,0,0,0,0,0,0,0,5.2,0,0,9999,77777,9,999999999,0,0,0,99,0.2,0,0
2023,10,18,6,60,9,31.9,24.5,65.0,101325,0,0,0,0,0,0,0,0,0,0,0,3.9,0,0,9999,77777,9,999999999,0,0,0,99,0.2,0,0
2023,10,18,7,60,9,32.9,23.6,58.0,101325,0,0,0,0,0,0,0,0,0,0,0,2.7,0,0,9999,77777,9,999999999,0,0,0,99,0.2,0,0
2023,10,18,8,60,9,33.6,21.7,50.0,101325,0,0,0,0,0,0,0,0,0,0,0,2.5,0,0,9999,77777,9,999999999,0,0,0,99,0.2,0,0
2023,10,18,9,60,9,33.8,19.9,44.0,101325,0,0,0,0,0,0,0,0,0,0,0,3.1,0,0,9999,77777,9,999999999,0,0,0,99,0.2,0,0
2023,10,18,10,60,9,32.8,23.8,59.0,101325,0,0,0,0,0,0,0,0,0,0,0,9.6,0,0,9999,77777,9,999999999,0,0,0,99,0.2,0,0
2023,10,18,11,60,9,32.2,24.1,63.0,101325,0,0,0,0,0,0,0,0,0,0,0,14.0,0,0,9999,77777,9,999999999,0,0,0,99,0.2,0,0
2023,10,18,12,60,9,31.9,22.0,56.0,101325,0,0,0,0,0,0,0,0,0,0,0,13.8,0,0,9999,77777,9,999999999,0,0,0,99,0.2,0,0
2023,10,18,13,60,9,30.5,23.7,67.0,101325,0,0,0,0,0,0,0,0,0,0,0,18.1,0,0,9999,77777,9,999999999,0,0,0,99,0.2,0,0
2023,10,18,14,60,9,29.4,24.2,74.0,101325,0,0,0,0,0,0,0,0,0,0,0,15.9,0,0,9999,77777,9,999999999,0,0,0,99,0.2,0,0
2023,10,18,15,60,9,29.0,24.7,78.0,101325,0,0,0,0,0,0,0,0,0,0,0,17.0,0,0,9999,77777,9,999999999,0,0,0,99,0.2,0,0
2023,10,18,16,60,9,28.9,23.2,71.0,101325,0,0,0,0,0,0,0,0,0,0,0,14.8,0,0,9999,77777,9,999999999,0,0,0,99,0.2,0,0
2023,10,18,17,60,9,28.7,21.8,66.0,101325,0,0,0,0,0,0,0,0,0,0,0,14.6,0,0,9999,77777,9,999999999,0,0,0,99,0.2,0,0
2023,10,18,18,60,9,28.2,21.7,68.0,101325,0,0,0,0,0,0,0,0,0,0,0,15.0,0,0,9999,77777,9,999999999,0,0,0,99,0.2,0,0
2023,10,18,19,60,9,27.7,21.4,68.0,101325,0,0,0,0,0,0,0,0,0,0,0,13.0,0,0,9999,77777,9,999999999,0,0,0,99,0.2,0,0
2023,10,18,20,60,9,27.4,20.8,67.0,101325,0,0,0,0,0,0,0,0,0,0,0,11.7,0,0,9999,77777,9,999999999,0,0,0,99,0.2,0,0
2023,10,18,21,60,9,27.2,20.1,65.0,101325,0,0,0,0,0,0,0,0,0,0,0,9.7,0,0,9999,77777,9,999999999,0,0,0,99,0.2,0,0
2023,10,18,22,60,9,27.0,19.8,65.0,101325,0,0,0,0,0,0,0,0,0,0,0,5.6,0,0,9999,77777,9,999999999,0,0,0,99,0.2,0,0
2023,10,18,23,60,9,25.9,20.5,72.0,101325,0,0,0,0,0,0,0,0,0,0,0,6.4,0,0,9999,77777,9,999999999,0,0,0,99,0.2,0,0
2023,10,18,24,60,9,25.4,20.8,76.0,101325,0,0,0,0,0,0,0,0,0,0,0,7.4,0,0,9999,77777,9,999999999,0,0,0,99,0.2,0,0
2023,10,19,1,60,9,25.8,19.0,66.0,101325,0,0,0,0,0,0,0,0,0,0,0,8.4,0,0,9999,77777,9,999999999,0,0,0,99,0.2,0,0
2023,10,19,2,60,9,25.8,18.8,65.0,101325,0,0,0,0,0,0,0,0,0,0,0,7.7,0,0,9999,77777,9,999999999,0,0,0,99,0.2,0,0
2023,10,19,3,60,9,26.1,19.5,67.0,101325,0,0,0,0,0,0,0,0,0,0,0,7.6,0,0,9999,77777,9,999999999,0,0,0,99,0.2,0,0
2023,10,19,4,60,9,27.9,20.9,66.0,101325,0,0,0,0,0,0,0,0,0,0,0,6.7,0,0,9999,77777,9,999999999,0,0,0,99,0.2,0,0
2023,10,19,5,60,9,30.2,22.0,62.0,101325,0,0,0,0,0,0,0,0,0,0,0,6.0,0,0,9999,77777,9,999999999,0,0,0,99,0.2,0,0
2023,10,19,6,60,9,32.1,22.6,57.0,101325,0,0,0,0,0,0,0,0,0,0,0,5.5,0,0,9999,77777,9,999999999,0,0,0,99,0.2,0,0
2023,10,19,7,60,9,33.3,22.1,52.0,101325,0,0,0,0,0,0,0,0,0,0,0,4.7,0,0,9999,77777,9,999999999,0,0,0,99,0.2,0,0
2023,10,19,8,60,9,33.9,21.4,48.0,101325,0,0,0,0,0,0,0,0,0,0,0,5.9,0,0,9999,77777,9,999999999,0,0,0,99,0.2,0,0
2023,10,19,9,60,9,33.6,22.6,53.0,101325,0,0,0,0,0,0,0,0,0,0,0,10.9,0,0,9999,77777,9,999999999,0,0,0,99,0.2,0,0
2023,10,19,10,60,9,33.0,23.5,57.0,101325,0,0,0,0,0,0,0,0,0,0,0,14.6,0,0,9999,77777,9,999999999,0,0,0,99,0.2,0,0
2023,10,19,11,60,9,32.4,22.3,55.0,101325,0,0,0,0,0,0,0,0,0,0,0,16.1,0,0,9999,77777,9,999999999,0,0,0,99,0.2,0,0
2023,10,19,12,60,9,31.4,22.0,57.0,101325,0,0,0,0,0,0,0,0,0,0,0,13.9,0,0,9999,77777,9,999999999,0,0,0,99,0.2,0,0
2023,10,19,13,60,9,30.6,23.7,67.0,101325,0,0,0,0,0,0,0,0,0,0,0,14.1,0,0,9999,77777,9,999999999,0,0,0,99,0.2,0,0
2023,10,19,14,60,9,29.0,22.5,68.0,101325,0,0,0,0,0,0,0,0,0,0,0,11.9,0,0,9999,77777,9,999999999,0,0,0,99,0.2,0,0
2023,10,19,15,60,9,28.7,21.5,65.0,101325,0,0,0,0,0,0,0,0,0,0,0,13.8,0,0,9999,77777,9,999999999,0,0,0,99,0.2,0,0
2023,10,19,16,60,9,28.3,19.8,60.0,101325,0,0,0,0,0,0,0,0,0,0,0,11.6,0,0,9999,77777,9,999999999,0,0,0,99,0.2,0,0
2023,10,19,17,60,9,27.4,19.0,60.0,101325,0,0,0,0,0,0,0,0,0,0,0,9.2,0,0,9999,77777,9,999999999,0,0,0,99,0.2,0,0
2023,10,19,18,60,9,25.6,19.1,67.0,101325,0,0,0,0,0,0,0,0,0,0,0,6.5,0,0,9999,77777,9,999999999,0,0,0,99,0.2,0,0
2023,10,19,19,60,9,24.6,19.6,74.0,101325,0,0,0,0,0,0,0,0,0,0,0,8.4,0,0,9999,77777,9,999999999,0,0,0,99,0.2,0,0
2023,10,19,20,60,9,25.8,19.4,68.0,101325,0,0,0,0,0,0,0,0,0,0,0,6.6,0,0,9999,77777,9,999999999,0,0,0,99,0.2,0,0
2023,10,19,21,60,9,25.9,19.2,66.0,101325,0,0,0,0,0,0,0,0,0,0,0,6.1,0,0,9999,77777,9,999999999,0,0,0,99,0.2,0,0
2023,10,19,22,60,9,24.8,18.8,69.0,101325,0,0,0,0,0,0,0,0,0,0,0,7.2,0,0,9999,77777,9,999999999,0,0,0,99,0.2,0,0
2023,10,19,23,60,9,23.8,18.6,73.0,101325,0,0,0,0,0,0,0,0,0,0,0,9.7,0,0,9999,77777,9,999999999,0,0,0,99,0.2,0,0
2023,10,19,24,60,9,24.8,17.6,64.0,101325,0,0,0,0,0,0,0,0,0,0,0,6.8,0,0,9999,77777,9,999999999,0,0,0,99,0.2,0,0
2023,10,20,1,60,9,25.0,20.8,77.0,101325,0,0,0,0,0,0,0,0,0,0,0,10.5,0,0,9999,77777,9,999999999,0,0,0,99,0.2,0,0
2023,10,20,2,60,9,24.9,19.4,72.0,101325,0,0,0,0,0,0,0,0,0,0,0,7.6,0,0,9999,77777,9,999999999,0,0,0,99,0.2,0,0
2023,10,20,3,60,9,25.6,20.2,72.0,101325,0,0,0,0,0,0,0,0,0,0,0,7.6,0,0,9999,77777,9,999999999,0,0,0,99,0.2,0,0
2023,10,20,4,60,9,27.5,21.8,71.0,101325,0,0,0,0,0,0,0,0,0,0,0,9.8,0,0,9999,77777,9,999999999,0,0,0,99,0.2,0,0
2023,10,20,5,60,9,30.1,21.8,61.0,101325,0,0,0,0,0,0,0,0,0,0,0,10.8,0,0,9999,77777,9,999999999,0,0,0,99,0.2,0,0
2023,10,20,6,60,9,32.1,21.1,52.0,101325,0,0,0,0,0,0,0,0,0,0,0,9.7,0,0,9999,77777,9,999999999,0,0,0,99,0.2,0,0
2023,10,20,7,60,9,33.4,21.2,49.0,101325,0,0,0,0,0,0,0,0,0,0,0,6.9,0,0,9999,77777,9,999999999,0,0,0,99,0.2,0,0
2023,10,20,8,60,9,34.2,20.4,44.0,101325,0,0,0,0,0,0,0,0,0,0,0,4.7,0,0,9999,77777,9,999999999,0,0,0,99,0.2,0,0
2023,10,20,9,60,9,34.4,20.6,45.0,101325,0,0,0,0,0,0,0,0,0,0,0,4.6,0,0,9999,77777,9,999999999,0,0,0,99,0.2,0,0
2023,10,20,10,60,9,33.2,23.8,58.0,101325,0,0,0,0,0,0,0,0,0,0,0,8.3,0,0,9999,77777,9,999999999,0,0,0,99,0.2,0,0
2023,10,20,11,60,9,32.4,24.7,64.0,101325,0,0,0,0,0,0,0,0,0,0,0,7.9,0,0,9999,77777,9,999999999,0,0,0,99,0.2,0,0
2023,10,20,12,60,9,31.8,24.5,65.0,101325,0,0,0,0,0,0,0,0,0,0,0,7.6,0,0,9999,77777,9,999999999,0,0,0,99,0.2,0,0
2023,10,20,13,60,9,30.5,25.2,73.0,101325,0,0,0,0,0,0,0,0,0,0,0,8.2,0,0,9999,77777,9,999999999,0,0,0,99,0.2,0,0
2023,10,20,14,60,9,28.9,24.7,78.0,101325,0,0,0,0,0,0,0,0,0,0,0,7.6,0,0,9999,77777,9,999999999,0,0,0,99,0.2,0,0
2023,10,20,15,60,9,28.2,24.4,80.0,101325,0,0,0,0,0,0,0,0,0,0,0,8.0,0,0,9999,77777,9,999999999,0,0,0,99,0.2,0,0
2023,10,20,16,60,9,28.0,24.1,80.0,101325,0,0,0,0,0,0,0,0,0,0,0,9.7,0,0,9999,77777,9,999999999,0,0,0,99,0.2,0,0
2023,10,20,17,60,9,27.7,24.2,81.0,101325,0,0,0,0,0,0,0,0,0,0,0,9.4,0,0,9999,77777,9,999999999,0,0,0,99,0.2,0,0
2023,10,20,18,60,9,26.6,23.2,82.0,101325,0,0,0,0,0,0,0,0,0,0,0,7.6,0,0,9999,77777,9,999999999,0,0,0,99,0.2,0,0
2023,10,20,19,60,9,28.1,21.9,69.0,101325,0,0,0,0,0,0,0,0,0,0,0,5.2,0,0,9999,77777,9,999999999,0,0,0,99,0.2,0,0
2023,10,20,20,60,9,25.5,22.3,82.0,101325,0,0,0,0,0,0,0,0,0,0,0,6.2,0,0,9999,77777,9,999999999,0,0,0,99,0.2,0,0
2023,10,20,21,60,9,24.9,22.6,87.0,101325,0,0,0,0,0,0,0,0,0,0,0,7.8,0,0,9999,77777,9,999999999,0,0,0,99,0.2,0,0
2023,10,20,22,60,9,24.9,22.2,85.0,101325,0,0,0,0,0,0,0,0,0,0,0,6.4,0,0,9999,77777,9,999999999,0,0,0,99,0.2,0,0
2023,10,20,23,60,9,24.6,22.1,86.0,101325,0,0,0,0,0,0,0,0,0,0,0,7.1,0,0,9999,77777,9,999999999,0,0,0,99,0.2,0,0
2023,10,20,24,60,9,24.0,21.7,87.0,101325,0,0,0,0,0,0,0,0,0,0,0,8.1,0,0,9999,77777,9,999999999,0,0,0,99,0.2,0,0
2023,10,21,1,60,9,25.7,22.7,84.0,101325,0,0,0,0,0,0,0,0,0,0,0,6.8,0,0,9999,77777,9,999999999,0,0,0,99,0.2,0,0
2023,10,21,2,60,9,25.9,22.4,81.0,101325,0,0,0,0,0,0,0,0,0,0,0,6.8,0,0,9999,77777,9,999999999,0,0,0,99,0.2,0,0
2023,10,21,3,60,9,27.4,24.1,82.0,101325,0,0,0,0,0,0,0,0,0,0,0,10.5,0,0,9999,77777,9,999999999,0,0,0,99,0.2,0,0
2023,10,21,4,60,9,29.0,24.4,76.0,101325,0,0,0,0,0,0,0,0,0,0,0,2.9,0,0,9999,77777,9,999999999,0,0,0,99,0.2,0,0
2023,10,21,5,60,9,30.7,22.5,62.0,101325,0,0,0,0,0,0,0,0,0,0,0,9.7,0,0,9999,77777,9,999999999,0,0,0,99,0.2,0,0
2023,10,21,6,60,9,32.2,21.3,53.0,101325,0,0,0,0,0,0,0,0,0,0,0,12.3,0,0,9999,77777,9,999999999,0,0,0,99,0.2,0,0
2023,10,21,7,60,9,33.3,21.5,50.0,101325,0,0,0,0,0,0,0,0,0,0,0,10.5,0,0,9999,77777,9,999999999,0,0,0,99,0.2,0,0
2023,10,21,8,60,9,34.5,20.5,44.0,101325,0,0,0,0,0,0,0,0,0,0,0,6.8,0,0,9999,77777,9,999999999,0,0,0,99,0.2,0,0
2023,10,21,9,60,9,34.9,19.7,41.0,101325,0,0,0,0,0,0,0,0,0,0,0,5.2,0,0,9999,77777,9,999999999,0,0,0,99,0.2,0,0
2023,10,21,10,60,9,34.2,19.6,42.0,101325,0,0,0,0,0,0,0,0,0,0,0,7.2,0,0,9999,77777,9,999999999,0,0,0,99,0.2,0,0
2023,10,21,11,60,9,33.8,19.4,43.0,101325,0,0,0,0,0,0,0,0,0,0,0,7.6,0,0,9999,77777,9,999999999,0,0,0,99,0.2,0,0
2023,10,21,12,60,9,33.5,19.6,44.0,101325,0,0,0,0,0,0,0,0,0,0,0,5.1,0,0,9999,77777,9,999999999,0,0,0,99,0.2,0,0
2023,10,21,13,60,9,31.4,20.8,53.0,101325,0,0,0,0,0,0,0,0,0,0,0,11.9,0,0,9999,77777,9,999999999,0,0,0,99,0.2,0,0
2023,10,21,14,60,9,30.0,21.5,60.0,101325,0,0,0,0,0,0,0,0,0,0,0,11.4,0,0,9999,77777,9,999999999,0,0,0,99,0.2,0,0
2023,10,21,15,60,9,28.9,23.4,72.0,101325,0,0,0,0,0,0,0,0,0,0,0,8.4,0,0,9999,77777,9,999999999,0,0,0,99,0.2,0,0
2023,10,21,16,60,9,28.3,22.8,72.0,101325,0,0,0,0,0,0,0,0,0,0,0,10.9,0,0,9999,77777,9,999999999,0,0,0,99,0.2,0,0
2023,10,21,17,60,9,27.8,21.9,70.0,101325,0,0,0,0,0,0,0,0,0,0,0,8.8,0,0,9999,77777,9,999999999,0,0,0,99,0.2,0,0
2023,10,21,18,60,9,27.1,21.5,72.0,101325,0,0,0,0,0,0,0,0,0,0,0,6.7,0,0,9999,77777,9,999999999,0,0,0,99,0.2,0,0
2023,10,21,19,60,9,26.7,21.3,72.0,101325,0,0,0,0,0,0,0,0,0,0,0,6.9,0,0,9999,77777,9,999999999,0,0,0,99,0.2,0,0
2023,10,21,20,60,9,26.5,21.1,72.0,101325,0,0,0,0,0,0,0,0,0,0,0,7.6,0,0,9999,77777,9,999999999,0,0,0,99,0.2,0,0
2023,10,21,21,60,9,25.5,21.4,78.0,101325,0,0,0,0,0,0,0,0,0,0,0,5.9,0,0,9999,77777,9,999999999,0,0,0,99,0.2,0,0
2023,10,21,22,60,9,24.7,21.7,83.0,101325,0,0,0,0,0,0,0,0,0,0,0,5.5,0,0,9999,77777,9,999999999,0,0,0,99,0.2,0,0
2023,10,21,23,60,9,24.2,21.7,86.0,101325,0,0,0,0,0,0,0,0,0,0,0,5.5,0,0,9999,77777,9,999999999,0,0,0,99,0.2,0,0
2023,10,21,24,60,9,23.8,21.5,87.0,101325,0,0,0,0,0,0,0,0,0,0,0,7.0,0,0,9999,77777,9,999999999,0,0,0,99,0.2,0,0
2023,10,22,1,60,9,26.3,22.3,78.0,101325,0,0,0,0,0,0,0,0,0,0,0,5.2,0,0,9999,77777,9,999999999,0,0,0,99,0.2,0,0
2023,10,22,2,60,9,26.2,22.2,79.0,101325,0,0,0,0,0,0,0,0,0,0,0,4.3,0,0,9999,77777,9,999999999,0,0,0,99,0.2,0,0
2023,10,22,3,60,9,26.8,22.5,77.0,101325,0,0,0,0,0,0,0,0,0,0,0,7.0,0,0,9999,77777,9,999999999,0,0,0,99,0.2,0,0
2023,10,22,4,60,9,28.7,22.8,71.0,101325,0,0,0,0,0,0,0,0,0,0,0,6.0,0,0,9999,77777,9,999999999,0,0,0,99,0.2,0,0
2023,10,22,5,60,9,30.9,22.3,60.0,101325,0,0,0,0,0,0,0,0,0,0,0,7.4,0,0,9999,77777,9,999999999,0,0,0,99,0.2,0,0
2023,10,22,6,60,9,32.4,21.7,53.0,101325,0,0,0,0,0,0,0,0,0,0,0,6.6,0,0,9999,77777,9,999999999,0,0,0,99,0.2,0,0
2023,10,22,7,60,9,33.3,21.2,49.0,101325,0,0,0,0,0,0,0,0,0,0,0,3.6,0,0,9999,77777,9,999999999,0,0,0,99,0.2,0,0
2023,10,22,8,60,9,33.6,20.8,47.0,101325,0,0,0,0,0,0,0,0,0,0,0,3.8,0,0,9999,77777,9,999999999,0,0,0,99,0.2,0,0
2023,10,22,9,60,9,33.7,20.4,46.0,101325,0,0,0,0,0,0,0,0,0,0,0,4.6,0,0,9999,77777,9,999999999,0,0,0,99,0.2,0,0
2023,10,22,10,60,9,33.2,21.4,50.0,101325,0,0,0,0,0,0,0,0,0,0,0,8.0,0,0,9999,77777,9,999999999,0,0,0,99,0.2,0,0
2023,10,22,11,60,9,32.4,23.0,58.0,101325,0,0,0,0,0,0,0,0,0,0,0,11.8,0,0,9999,77777,9,999999999,0,0,0,99,0.2,0,0
2023,10,22,12,60,9,31.5,23.8,64.0,101325,0,0,0,0,0,0,0,0,0,0,0,13.0,0,0,9999,77777,9,999999999,0,0,0,99,0.2,0,0
2023,10,22,13,60,9,30.2,24.4,71.0,101325,0,0,0,0,0,0,0,0,0,0,0,13.0,0,0,9999,77777,9,999999999,0,0,0,99,0.2,0,0
2023,10,22,14,60,9,28.8,25.6,83.0,101325,0,0,0,0,0,0,0,0,0,0,0,14.5,0,0,9999,77777,9,999999999,0,0,0,99,0.2,0,0
2023,10,22,15,60,9,28.4,25.3,83.0,101325,0,0,0,0,0,0,0,0,0,0,0,14.2,0,0,9999,77777,9,999999999,0,0,0,99,0.2,0,0
2023,10,22,16,60,9,28.2,25.0,83.0,101325,0,0,0,0,0,0,0,0,0,0,0,11.2,0,0,9999,77777,9,999999999,0,0,0,99,0.2,0,0
2023,10,22,17,60,9,27.2,24.3,84.0,101325,0,0,0,0,0,0,0,0,0,0,0,6.8,0,0,9999,77777,9,999999999,0,0,0,99,0.2,0,0
2023,10,22,18,60,9,26.6,23.0,81.0,101325,0,0,0,0,0,0,0,0,0,0,0,5.6,0,0,9999,77777,9,999999999,0,0,0,99,0.2,0,0
2023,10,22,19,60,9,25.7,22.6,83.0,101325,0,0,0,0,0,0,0,0,0,0,0,7.4,0,0,9999,77777,9,999999999,0,0,0,99,0.2,0,0
2023,10,22,20,60,9,25.1,22.2,84.0,101325,0,0,0,0,0,0,0,0,0,0,0,5.4,0,0,9999,77777,9,999999999,0,0,0,99,0.2,0,0
2023,10,22,21,60,9,26.4,21.6,75.0,101325,0,0,0,0,0,0,0,0,0,0,0,4.3,0,0,9999,77777,9,999999999,0,0,0,99,0.2,0,0
2023,10,22,22,60,9,24.7,21.8,84.0,101325,0,0,0,0,0,0,0,0,0,0,0,5.5,0,0,9999,77777,9,999999999,0,0,0,99,0.2,0,0
2023,10,22,23,60,9,24.0,21.8,88.0,101325,0,0,0,0,0,0,0,0,0,0,0,4.7,0,0,9999,77777,9,999999999,0,0,0,99,0.2,0,0
2023,10,22,24,60,9,23.8,22.2,90.0,101325,0,0,0,0,0,0,0,0,0,0,0,5.9,0,0,9999,77777,9,999999999,0,0,0,99,0.2,0,0
2023,10,23,1,60,9,24.0,22.5,91.0,101325,0,0,0,0,0,0,0,0,0,0,0,4.7,0,0,9999,77777,9,999999999,0,0,0,99,0.2,0,0
2023,10,23,2,60,9,24.5,22.3,88.0,101325,0,0,0,0,0,0,0,0,0,0,0,6.8,0,0,9999,77777,9,999999999,0,0,0,99,0.2,0,0
2023,10,23,3,60,9,25.6,22.5,83.0,101325,0,0,0,0,0,0,0,0,0,0,0,9.8,0,0,9999,77777,9,999999999,0,0,0,99,0.2,0,0
2023,10,23,4,60,9,28.1,23.1,74.0,101325,0,0,0,0,0,0,0,0,0,0,0,7.6,0,0,9999,77777,9,999999999,0,0,0,99,0.2,0,0
2023,10,23,5,60,9,30.6,22.5,62.0,101325,0,0,0,0,0,0,0,0,0,0,0,7.2,0,0,9999,77777,9,999999999,0,0,0,99,0.2,0,0
2023,10,23,6,60,9,32.4,21.1,51.0,101325,0,0,0,0,0,0,0,0,0,0,0,7.7,0,0,9999,77777,9,999999999,0,0,0,99,0.2,0,0
2023,10,23,7,60,9,33.5,19.9,45.0,101325,0,0,0,0,0,0,0,0,0,0,0,7.3,0,0,9999,77777,9,999999999,0,0,0,99,0.2,0,0
2023,10,23,8,60,9,34.5,17.8,37.0,101325,0,0,0,0,0,0,0,0,0,0,0,4.7,0,0,9999,77777,9,999999999,0,0,0,99,0.2,0,0
2023,10,23,9,60,9,34.8,16.4,33.0,101325,0,0,0,0,0,0,0,0,0,0,0,2.0,0,0,9999,77777,9,999999999,0,0,0,99,0.2,0,0
2023,10,23,10,60,9,33.3,22.3,53.0,101325,0,0,0,0,0,0,0,0,0,0,0,8.7,0,0,9999,77777,9,999999999,0,0,0,99,0.2,0,0
2023,10,23,11,60,9,32.8,23.0,57.0,101325,0,0,0,0,0,0,0,0,0,0,0,10.1,0,0,9999,77777,9,999999999,0,0,0,99,0.2,0,0
2023,10,23,12,60,9,31.7,23.5,62.0,101325,0,0,0,0,0,0,0,0,0,0,0,13.8,0,0,9999,77777,9,999999999,0,0,0,99,0.2,0,0
2023,10,23,13,60,9,29.9,23.8,70.0,101325,0,0,0,0,0,0,0,0,0,0,0,17.6,0,0,9999,77777,9,999999999,0,0,0,99,0.2,0,0
2023,10,23,14,60,9,29.4,21.8,64.0,101325,0,0,0,0,0,0,0,0,0,0,0,18.7,0,0,9999,77777,9,999999999,0,0,0,99,0.2,0,0
2023,10,23,15,60,9,28.9,20.7,61.0,101325,0,0,0,0,0,0,0,0,0,0,0,17.9,0,0,9999,77777,9,999999999,0,0,0,99,0.2,0,0
2023,10,23,16,60,9,28.5,20.2,61.0,101325,0,0,0,0,0,0,0,0,0,0,0,13.6,0,0,9999,77777,9,999999999,0,0,0,99,0.2,0,0
2023,10,23,17,60,9,28.1,19.4,59.0,101325,0,0,0,0,0,0,0,0,0,0,0,10.7,0,0,9999,77777,9,999999999,0,0,0,99,0.2,0,0
2023,10,23,18,60,9,26.6,19.5,65.0,101325,0,0,0,0,0,0,0,0,0,0,0,6.0,0,0,9999,77777,9,999999999,0,0,0,99,0.2,0,0
2023,10,23,19,60,9,25.7,20.1,71.0,101325,0,0,0,0,0,0,0,0,0,0,0,7.4,0,0,9999,77777,9,999999999,0,0,0,99,0.2,0,0
2023,10,23,20,60,9,25.2,19.5,71.0,101325,0,0,0,0,0,0,0,0,0,0,0,8.0,0,0,9999,77777,9,999999999,0,0,0,99,0.2,0,0
2023,10,23,21,60,9,24.6,19.5,73.0,101325,0,0,0,0,0,0,0,0,0,0,0,7.9,0,0,9999,77777,9,999999999,0,0,0,99,0.2,0,0
2023,10,23,22,60,9,24.3,19.4,74.0,101325,0,0,0,0,0,0,0,0,0,0,0,6.9,0,0,9999,77777,9,999999999,0,0,0,99,0.2,0,0
2023,10,23,23,60,9,24.4,19.3,73.0,101325,0,0,0,0,0,0,0,0,0,0,0,4.6,0,0,9999,77777,9,999999999,0,0,0,99,0.2,0,0
2023,10,23,24,60,9,23.3,19.4,78.0,101325,0,0,0,0,0,0,0,0,0,0,0,4.4,0,0,9999,77777,9,999999999,0,0,0,99,0.2,0,0
2023,10,24,1,60,9,25.0,20.9,78.0,101325,0,0,0,0,0,0,0,0,0,0,0,7.0,0,0,9999,77777,9,999999999,0,0,0,99,0.2,0,0
2023,10,24,2,60,9,25.0,20.4,76.0,101325,0,0,0,0,0,0,0,0,0,0,0,5.2,0,0,9999,77777,9,999999999,0,0,0,99,0.2,0,0
2023,10,24,3,60,9,25.9,20.5,72.0,101325,0,0,0,0,0,0,0,0,0,0,0,7.4,0,0,9999,77777,9,999999999,0,0,0,99,0.2,0,0
2023,10,24,4,60,9,27.8,21.1,67.0,101325,0,0,0,0,0,0,0,0,0,0,0,6.8,0,0,9999,77777,9,999999999,0,0,0,99,0.2,0,0
2023,10,24,5,60,9,30.2,21.0,58.0,101325,0,0,0,0,0,0,0,0,0,0,0,7.0,0,0,9999,77777,9,999999999,0,0,0,99,0.2,0,0
2023,10,24,6,60,9,32.1,20.0,49.0,101325,0,0,0,0,0,0,0,0,0,0,0,7.3,0,0,9999,77777,9,999999999,0,0,0,99,0.2,0,0
2023,10,24,7,60,9,33.3,18.9,43.0,101325,0,0,0,0,0,0,0,0,0,0,0,5.8,0,0,9999,77777,9,999999999,0,0,0,99,0.2,0,0
2023,10,24,8,60,9,34.1,18.3,39.0,101325,0,0,0,0,0,0,0,0,0,0,0,3.1,0,0,9999,77777,9,999999999,0,0,0,99,0.2,0,0
2023,10,24,9,60,9,34.4,17.3,36.0,101325,0,0,0,0,0,0,0,0,0,0,0,2.4,0,0,9999,77777,9,999999999,0,0,0,99,0.2,0,0
2023,10,24,10,60,9,34.1,18.3,39.0,101325,0,0,0,0,0,0,0,0,0,0,0,6.0,0,0,9999,77777,9,999999999,0,0,0,99,0.2,0,0
2023,10,24,11,60,9,33.0,22.3,53.0,101325,0,0,0,0,0,0,0,0,0,0,0,10.2,0,0,9999,77777,9,999999999,0,0,0,99,0.2,0,0
2023,10,24,12,60,9,31.4,23.8,64.0,101325,0,0,0,0,0,0,0,0,0,0,0,12.9,0,0,9999,77777,9,999999999,0,0,0,99,0.2,0,0
2023,10,24,13,60,9,30.2,23.3,67.0,101325,0,0,0,0,0,0,0,0,0,0,0,14.1,0,0,9999,77777,9,999999999,0,0,0,99,0.2,0,0
2023,10,24,14,60,9,29.3,21.7,64.0,101325,0,0,0,0,0,0,0,0,0,0,0,16.5,0,0,9999,77777,9,999999999,0,0,0,99,0.2,0,0
2023,10,24,15,60,9,28.6,23.5,74.0,101325,0,0,0,0,0,0,0,0,0,0,0,15.1,0,0,9999,77777,9,999999999,0,0,0,99,0.2,0,0
2023,10,24,16,60,9,28.2,22.0,69.0,101325,0,0,0,0,0,0,0,0,0,0,0,12.9,0,0,9999,77777,9,999999999,0,0,0,99,0.2,0,0
2023,10,24,17,60,9,28.3,16.7,49.0,101325,0,0,0,0,0,0,0,0,0,0,0,12.8,0,0,9999,77777,9,999999999,0,0,0,99,0.2,0,0
2023,10,24,18,60,9,27.9,14.6,44.0,101325,0,0,0,0,0,0,0,0,0,0,0,11.5,0,0,9999,77777,9,999999999,0,0,0,99,0.2,0,0
2023,10,24,19,60,9,26.3,15.4,51.0,101325,0,0,0,0,0,0,0,0,0,0,0,7.3,0,0,9999,77777,9,999999999,0,0,0,99,0.2,0,0
2023,10,24,20,60,9,24.8,16.1,58.0,101325,0,0,0,0,0,0,0,0,0,0,0,7.6,0,0,9999,77777,9,999999999,0,0,0,99,0.2,0,0
2023,10,24,21,60,9,25.1,15.8,56.0,101325,0,0,0,0,0,0,0,0,0,0,0,7.9,0,0,9999,77777,9,999999999,0,0,0,99,0.2,0,0
2023,10,24,22,60,9,24.3,16.2,61.0,101325,0,0,0,0,0,0,0,0,0,0,0,7.2,0,0,9999,77777,9,999999999,0,0,0,99,0.2,0,0
2023,10,24,23,60,9,24.7,16.1,59.0,101325,0,0,0,0,0,0,0,0,0,0,0,8.2,0,0,9999,77777,9,999999999,0,0,0,99,0.2,0,0
2023,10,24,24,60,9,23.2,16.7,67.0,101325,0,0,0,0,0,0,0,0,0,0,0,7.2,0,0,9999,77777,9,999999999,0,0,0,99,0.2,0,0
2023,10,25,1,60,9,22.6,16.7,70.0,101325,0,0,0,0,0,0,0,0,0,0,0,6.9,0,0,9999,77777,9,999999999,0,0,0,99,0.2,0,0
2023,10,25,2,60,9,23.4,17.6,70.0,101325,0,0,0,0,0,0,0,0,0,0,0,6.3,0,0,9999,77777,9,999999999,0,0,0,99,0.2,0,0
2023,10,25,3,60,9,24.8,18.2,67.0,101325,0,0,0,0,0,0,0,0,0,0,0,6.8,0,0,9999,77777,9,999999999,0,0,0,99,0.2,0,0
2023,10,25,4,60,9,26.6,19.8,66.0,101325,0,0,0,0,0,0,0,0,0,0,0,6.7,0,0,9999,77777,9,999999999,0,0,0,99,0.2,0,0
2023,10,25,5,60,9,29.6,20.4,58.0,101325,0,0,0,0,0,0,0,0,0,0,0,6.4,0,0,9999,77777,9,999999999,0,0,0,99,0.2,0,0
2023,10,25,6,60,9,32.1,19.8,48.0,101325,0,0,0,0,0,0,0,0,0,0,0,5.6,0,0,9999,77777,9,999999999,0,0,0,99,0.2,0,0
2023,10,25,7,60,9,33.3,18.5,41.0,101325,0,0,0,0,0,0,0,0,0,0,0,5.2,0,0,9999,77777,9,999999999,0,0,0,99,0.2,0,0
2023,10,25,8,60,9,33.9,17.3,37.0,101325,0,0,0,0,0,0,0,0,0,0,0,4.0,0,0,9999,77777,9,999999999,0,0,0,99,0.2,0,0
2023,10,25,9,60,9,33.9,17.0,37.0,101325,0,0,0,0,0,0,0,0,0,0,0,6.9,0,0,9999,77777,9,999999999,0,0,0,99,0.2,0,0
2023,10,25,10,60,9,33.0,21.4,51.0,101325,0,0,0,0,0,0,0,0,0,0,0,10.2,0,0,9999,77777,9,999999999,0,0,0,99,0.2,0,0
2023,10,25,11,60,9,32.2,22.4,56.0,101325,0,0,0,0,0,0,0,0,0,0,0,12.1,0,0,9999,77777,9,999999999,0,0,0,99,0.2,0,0
2023,10,25,12,60,9,30.7,22.4,61.0,101325,0,0,0,0,0,0,0,0,0,0,0,16.4,0,0,9999,77777,9,999999999,0,0,0,99,0.2,0,0
2023,10,25,13,60,9,30.0,22.2,63.0,101325,0,0,0,0,0,0,0,0,0,0,0,14.0,0,0,9999,77777,9,999999999,0,0,0,99,0.2,0,0
2023,10,25,14,60,9,28.9,21.6,65.0,101325,0,0,0,0,0,0,0,0,0,0,0,15.4,0,0,9999,77777,9,999999999,0,0,0,99,0.2,0,0
2023,10,25,15,60,9,28.6,20.9,63.0,101325,0,0,0,0,0,0,0,0,0,0,0,15.1,0,0,9999,77777,9,999999999,0,0,0,99,0.2,0,0
2023,10,25,16,60,9,28.2,20.9,65.0,101325,0,0,0,0,0,0,0,0,0,0,0,12.2,0,0,9999,77777,9,999999999,0,0,0,99,0.2,0,0
2023,10,25,17,60,9,27.7,21.0,67.0,101325,0,0,0,0,0,0,0,0,0,0,0,8.7,0,0,9999,77777,9,999999999,0,0,0,99,0.2,0,0
2023,10,25,18,60,9,25.6,21.2,77.0,101325,0,0,0,0,0,0,0,0,0,0,0,9.3,0,0,9999,77777,9,999999999,0,0,0,99,0.2,0,0
2023,10,25,19,60,9,25.1,19.8,72.0,101325,0,0,0,0,0,0,0,0,0,0,0,8.4,0,0,9999,77777,9,999999999,0,0,0,99,0.2,0,0
2023,10,25,20,60,9,24.1,19.0,73.0,101325,0,0,0,0,0,0,0,0,0,0,0,8.7,0,0,9999,77777,9,999999999,0,0,0,99,0.2,0,0
2023,10,25,21,60,9,23.7,18.2,71.0,101325,0,0,0,0,0,0,0,0,0,0,0,7.1,0,0,9999,77777,9,999999999,0,0,0,99,0.2,0,0
2023,10,25,22,60,9,23.8,17.4,67.0,101325,0,0,0,0,0,0,0,0,0,0,0,7.2,0,0,9999,77777,9,999999999,0,0,0,99,0.2,0,0
2023,10,25,23,60,9,23.7,17.4,68.0,101325,0,0,0,0,0,0,0,0,0,0,0,8.4,0,0,9999,77777,9,999999999,0,0,0,99,0.2,0,0
2023,10,25,24,60,9,23.4,17.3,68.0,101325,0,0,0,0,0,0,0,0,0,0,0,7.7,0,0,9999,77777,9,999999999,0,0,0,99,0.2,0,0
2023,10,26,1,60,9,22.8,17.2,71.0,101325,0,0,0,0,0,0,0,0,0,0,0,7.8,0,0,9999,77777,9,999999999,0,0,0,99,0.2,0,0
2023,10,26,2,60,9,23.1,18.0,73.0,101325,0,0,0,0,0,0,0,0,0,0,0,7.3,0,0,9999,77777,9,999999999,0,0,0,99,0.2,0,0
2023,10,26,3,60,9,23.9,17.8,69.0,101325,0,0,0,0,0,0,0,0,0,0,0,9.7,0,0,9999,77777,9,999999999,0,0,0,99,0.2,0,0
2023,10,26,4,60,9,26.7,18.9,62.0,101325,0,0,0,0,0,0,0,0,0,0,0,8.3,0,0,9999,77777,9,999999999,0,0,0,99,0.2,0,0
2023,10,26,5,60,9,29.3,19.6,56.0,101325,0,0,0,0,0,0,0,0,0,0,0,6.0,0,0,9999,77777,9,999999999,0,0,0,99,0.2,0,0
2023,10,26,6,60,9,31.5,19.0,48.0,101325,0,0,0,0,0,0,0,0,0,0,0,4.4,0,0,9999,77777,9,999999999,0,0,0,99,0.2,0,0
2023,10,26,7,60,9,32.6,17.9,42.0,101325,0,0,0,0,0,0,0,0,0,0,0,4.7,0,0,9999,77777,9,999999999,0,0,0,99,0.2,0,0
2023,10,26,8,60,9,33.4,16.7,37.0,101325,0,0,0,0,0,0,0,0,0,0,0,5.5,0,0,9999,77777,9,999999999,0,0,0,99,0.2,0,0
2023,10,26,9,60,9,34.1,13.2,28.0,101325,0,0,0,0,0,0,0,0,0,0,0,3.7,0,0,9999,77777,9,999999999,0,0,0,99,0.2,0,0
2023,10,26,10,60,9,33.5,15.8,35.0,101325,0,0,0,0,0,0,0,0,0,0,0,2.6,0,0,9999,77777,9,999999999,0,0,0,99,0.2,0,0
2023,10,26,11,60,9,32.6,19.6,46.0,101325,0,0,0,0,0,0,0,0,0,0,0,8.3,0,0,9999,77777,9,999999999,0,0,0,99,0.2,0,0
2023,10,26,12,60,9,30.1,20.3,56.0,101325,0,0,0,0,0,0,0,0,0,0,0,19.9,0,0,9999,77777,9,999999999,0,0,0,99,0.2,0,0
2023,10,26,13,60,9,29.9,20.4,57.0,101325,0,0,0,0,0,0,0,0,0,0,0,14.6,0,0,9999,77777,9,999999999,0,0,0,99,0.2,0,0
2023,10,26,14,60,9,28.7,20.1,60.0,101325,0,0,0,0,0,0,0,0,0,0,0,16.6,0,0,9999,77777,9,999999999,0,0,0,99,0.2,0,0
2023,10,26,15,60,9,28.6,17.0,49.0,101325,0,0,0,0,0,0,0,0,0,0,0,16.6,0,0,9999,77777,9,999999999,0,0,0,99,0.2,0,0
2023,10,26,16,60,9,28.2,18.2,55.0,101325,0,0,0,0,0,0,0,0,0,0,0,16.5,0,0,9999,77777,9,999999999,0,0,0,99,0.2,0,0
2023,10,26,17,60,9,27.5,20.2,65.0,101325,0,0,0,0,0,0,0,0,0,0,0,14.8,0,0,9999,77777,9,999999999,0,0,0,99,0.2,0,0
2023,10,26,18,60,9,26.9,20.1,66.0,101325,0,0,0,0,0,0,0,0,0,0,0,10.7,0,0,9999,77777,9,999999999,0,0,0,99,0.2,0,0
2023,10,26,19,60,9,25.2,19.6,71.0,101325,0,0,0,0,0,0,0,0,0,0,0,6.6,0,0,9999,77777,9,999999999,0,0,0,99,0.2,0,0
2023,10,26,20,60,9,23.5,18.5,73.0,101325,0,0,0,0,0,0,0,0,0,0,0,9.2,0,0,9999,77777,9,999999999,0,0,0,99,0.2,0,0
2023,10,26,21,60,9,22.9,17.3,71.0,101325,0,0,0,0,0,0,0,0,0,0,0,7.6,0,0,9999,77777,9,999999999,0,0,0,99,0.2,0,0
2023,10,26,22,60,9,23.1,15.8,64.0,101325,0,0,0,0,0,0,0,0,0,0,0,7.6,0,0,9999,77777,9,999999999,0,0,0,99,0.2,0,0
2023,10,26,23,60,9,21.8,15.9,69.0,101325,0,0,0,0,0,0,0,0,0,0,0,9.3,0,0,9999,77777,9,999999999,0,0,0,99,0.2,0,0
2023,10,26,24,60,9,22.6,15.8,66.0,101325,0,0,0,0,0,0,0,0,0,0,0,5.1,0,0,9999,77777,9,999999999,0,0,0,99,0.2,0,0
2023,10,27,1,60,9,21.3,16.6,75.0,101325,0,0,0,0,0,0,0,0,0,0,0,6.6,0,0,9999,77777,9,999999999,0,0,0,99,0.2,0,0
2023,10,27,2,60,9,21.9,15.5,67.0,101325,0,0,0,0,0,0,0,0,0,0,0,4.5,0,0,9999,77777,9,999999999,0,0,0,99,0.2,0,0
2023,10,27,3,60,9,23.1,15.4,62.0,101325,0,0,0,0,0,0,0,0,0,0,0,8.5,0,0,9999,77777,9,999999999,0,0,0,99,0.2,0,0
2023,10,27,4,60,9,25.2,16.9,60.0,101325,0,0,0,0,0,0,0,0,0,0,0,9.3,0,0,9999,77777,9,999999999,0,0,0,99,0.2,0,0
2023,10,27,5,60,9,28.7,18.4,54.0,101325,0,0,0,0,0,0,0,0,0,0,0,8.5,0,0,9999,77777,9,999999999,0,0,0,99,0.2,0,0
2023,10,27,6,60,9,31.5,16.9,41.0,101325,0,0,0,0,0,0,0,0,0,0,0,6.3,0,0,9999,77777,9,999999999,0,0,0,99,0.2,0,0
2023,10,27,7,60,9,33.1,15.1,34.0,101325,0,0,0,0,0,0,0,0,0,0,0,5.4,0,0,9999,77777,9,999999999,0,0,0,99,0.2,0,0
2023,10,27,8,60,9,34.0,13.1,28.0,101325,0,0,0,0,0,0,0,0,0,0,0,7.7,0,0,9999,77777,9,999999999,0,0,0,99,0.2,0,0
2023,10,27,9,60,9,34.3,12.4,27.0,101325,0,0,0,0,0,0,0,0,0,0,0,9.0,0,0,9999,77777,9,999999999,0,0,0,99,0.2,0,0
2023,10,27,10,60,9,34.1,12.6,27.0,101325,0,0,0,0,0,0,0,0,0,0,0,10.3,0,0,9999,77777,9,999999999,0,0,0,99,0.2,0,0
2023,10,27,11,60,9,32.8,18.2,42.0,101325,0,0,0,0,0,0,0,0,0,0,0,13.4,0,0,9999,77777,9,999999999,0,0,0,99,0.2,0,0
2023,10,27,12,60,9,31.4,18.6,47.0,101325,0,0,0,0,0,0,0,0,0,0,0,14.4,0,0,9999,77777,9,999999999,0,0,0,99,0.2,0,0
2023,10,27,13,60,9,29.6,18.6,52.0,101325,0,0,0,0,0,0,0,0,0,0,0,18.5,0,0,9999,77777,9,999999999,0,0,0,99,0.2,0,0
2023,10,27,14,60,9,28.4,21.7,67.0,101325,0,0,0,0,0,0,0,0,0,0,0,20.7,0,0,9999,77777,9,999999999,0,0,0,99,0.2,0,0
2023,10,27,15,60,9,28.6,18.5,54.0,101325,0,0,0,0,0,0,0,0,0,0,0,20.7,0,0,9999,77777,9,999999999,0,0,0,99,0.2,0,0
2023,10,27,16,60,9,28.4,19.0,57.0,101325,0,0,0,0,0,0,0,0,0,0,0,16.5,0,0,9999,77777,9,999999999,0,0,0,99,0.2,0,0
2023,10,27,17,60,9,27.7,20.2,64.0,101325,0,0,0,0,0,0,0,0,0,0,0,13.4,0,0,9999,77777,9,999999999,0,0,0,99,0.2,0,0
2023,10,27,18,60,9,27.2,18.9,61.0,101325,0,0,0,0,0,0,0,0,0,0,0,10.9,0,0,9999,77777,9,999999999,0,0,0,99,0.2,0,0
2023,10,27,19,60,9,26.2,17.7,60.0,101325,0,0,0,0,0,0,0,0,0,0,0,7.8,0,0,9999,77777,9,999999999,0,0,0,99,0.2,0,0
2023,10,27,20,60,9,23.7,17.5,68.0,101325,0,0,0,0,0,0,0,0,0,0,0,9.4,0,0,9999,77777,9,999999999,0,0,0,99,0.2,0,0
2023,10,27,21,60,9,23.0,17.0,69.0,101325,0,0,0,0,0,0,0,0,0,0,0,8.9,0,0,9999,77777,9,999999999,0,0,0,99,0.2,0,0
2023,10,27,22,60,9,22.6,16.5,68.0,101325,0,0,0,0,0,0,0,0,0,0,0,6.6,0,0,9999,77777,9,999999999,0,0,0,99,0.2,0,0
2023,10,27,23,60,9,21.3,16.5,74.0,101325,0,0,0,0,0,0,0,0,0,0,0,8.2,0,0,9999,77777,9,999999999,0,0,0,99,0.2,0,0
2023,10,27,24,60,9,21.3,15.6,70.0,101325,0,0,0,0,0,0,0,0,0,0,0,5.9,0,0,9999,77777,9,999999999,0,0,0,99,0.2,0,0
2023,10,28,1,60,9,21.2,15.2,69.0,101325,0,0,0,0,0,0,0,0,0,0,0,6.0,0,0,9999,77777,9,999999999,0,0,0,99,0.2,0,0
2023,10,28,2,60,9,21.6,14.5,64.0,101325,0,0,0,0,0,0,0,0,0,0,0,6.1,0,0,9999,77777,9,999999999,0,0,0,99,0.2,0,0
2023,10,28,3,60,9,22.7,15.2,63.0,101325,0,0,0,0,0,0,0,0,0,0,0,10.5,0,0,9999,77777,9,999999999,0,0,0,99,0.2,0,0
2023,10,28,4,60,9,25.5,16.1,56.0,101325,0,0,0,0,0,0,0,0,0,0,0,11.4,0,0,9999,77777,9,999999999,0,0,0,99,0.2,0,0
2023,10,28,5,60,9,28.9,18.1,52.0,101325,0,0,0,0,0,0,0,0,0,0,0,9.0,0,0,9999,77777,9,999999999,0,0,0,99,0.2,0,0
2023,10,28,6,60,9,31.3,16.9,42.0,101325,0,0,0,0,0,0,0,0,0,0,0,8.3,0,0,9999,77777,9,999999999,0,0,0,99,0.2,0,0
2023,10,28,7,60,9,33.2,16.7,37.0,101325,0,0,0,0,0,0,0,0,0,0,0,8.8,0,0,9999,77777,9,999999999,0,0,0,99,0.2,0,0
2023,10,28,8,60,9,34.2,12.8,27.0,101325,0,0,0,0,0,0,0,0,0,0,0,2.7,0,0,9999,77777,9,999999999,0,0,0,99,0.2,0,0
2023,10,28,9,60,9,34.1,13.3,29.0,101325,0,0,0,0,0,0,0,0,0,0,0,6.6,0,0,9999,77777,9,999999999,0,0,0,99,0.2,0,0
2023,10,28,10,60,9,32.8,19.6,46.0,101325,0,0,0,0,0,0,0,0,0,0,0,11.9,0,0,9999,77777,9,999999999,0,0,0,99,0.2,0,0
2023,10,28,11,60,9,32.3,20.3,49.0,101325,0,0,0,0,0,0,0,0,0,0,0,12.8,0,0,9999,77777,9,999999999,0,0,0,99,0.2,0,0
2023,10,28,12,60,9,31.3,21.2,55.0,101325,0,0,0,0,0,0,0,0,0,0,0,12.0,0,0,9999,77777,9,999999999,0,0,0,99,0.2,0,0
2023,10,28,13,60,9,29.7,21.2,61.0,101325,0,0,0,0,0,0,0,0,0,0,0,11.4,0,0,9999,77777,9,999999999,0,0,0,99,0.2,0,0
2023,10,28,14,60,9,28.4,19.1,57.0,101325,0,0,0,0,0,0,0,0,0,0,0,16.6,0,0,9999,77777,9,999999999,0,0,0,99,0.2,0,0
2023,10,28,15,60,9,28.0,20.5,64.0,101325,0,0,0,0,0,0,0,0,0,0,0,16.1,0,0,9999,77777,9,999999999,0,0,0,99,0.2,0,0
2023,10,28,16,60,9,27.9,19.6,60.0,101325,0,0,0,0,0,0,0,0,0,0,0,15.5,0,0,9999,77777,9,999999999,0,0,0,99,0.2,0,0
2023,10,28,17,60,9,27.6,16.7,51.0,101325,0,0,0,0,0,0,0,0,0,0,0,15.1,0,0,9999,77777,9,999999999,0,0,0,99,0.2,0,0
2023,10,28,18,60,9,26.9,15.2,49.0,101325,0,0,0,0,0,0,0,0,0,0,0,11.6,0,0,9999,77777,9,999999999,0,0,0,99,0.2,0,0
2023,10,28,19,60,9,24.3,14.9,56.0,101325,0,0,0,0,0,0,0,0,0,0,0,6.5,0,0,9999,77777,9,999999999,0,0,0,99,0.2,0,0
2023,10,28,20,60,9,22.8,16.1,66.0,101325,0,0,0,0,0,0,0,0,0,0,0,9.4,0,0,9999,77777,9,999999999,0,0,0,99,0.2,0,0
2023,10,28,21,60,9,22.8,15.8,65.0,101325,0,0,0,0,0,0,0,0,0,0,0,8.9,0,0,9999,77777,9,999999999,0,0,0,99,0.2,0,0
2023,10,28,22,60,9,22.2,15.8,67.0,101325,0,0,0,0,0,0,0,0,0,0,0,9.0,0,0,9999,77777,9,999999999,0,0,0,99,0.2,0,0
2023,10,28,23,60,9,21.4,15.6,70.0,101325,0,0,0,0,0,0,0,0,0,0,0,9.2,0,0,9999,77777,9,999999999,0,0,0,99,0.2,0,0
2023,10,28,24,60,9,21.6,14.9,65.0,101325,0,0,0,0,0,0,0,0,0,0,0,6.6,0,0,9999,77777,9,999999999,0,0,0,99,0.2,0,0
2023,10,29,1,60,9,21.4,14.0,63.0,101325,0,0,0,0,0,0,0,0,0,0,0,7.4,0,0,9999,77777,9,999999999,0,0,0,99,0.2,0,0
2023,10,29,2,60,9,21.6,14.9,66.0,101325,0,0,0,0,0,0,0,0,0,0,0,8.6,0,0,9999,77777,9,999999999,0,0,0,99,0.2,0,0
2023,10,29,3,60,9,22.7,15.2,63.0,101325,0,0,0,0,0,0,0,0,0,0,0,10.8,0,0,9999,77777,9,999999999,0,0,0,99,0.2,0,0
2023,10,29,4,60,9,25.4,17.0,60.0,101325,0,0,0,0,0,0,0,0,0,0,0,10.6,0,0,9999,77777,9,999999999,0,0,0,99,0.2,0,0
2023,10,29,5,60,9,28.7,18.1,53.0,101325,0,0,0,0,0,0,0,0,0,0,0,9.0,0,0,9999,77777,9,999999999,0,0,0,99,0.2,0,0
2023,10,29,6,60,9,31.6,17.6,43.0,101325,0,0,0,0,0,0,0,0,0,0,0,8.8,0,0,9999,77777,9,999999999,0,0,0,99,0.2,0,0
2023,10,29,7,60,9,33.3,16.8,37.0,101325,0,0,0,0,0,0,0,0,0,0,0,9.6,0,0,9999,77777,9,999999999,0,0,0,99,0.2,0,0
2023,10,29,8,60,9,34.4,15.0,31.0,101325,0,0,0,0,0,0,0,0,0,0,0,7.2,0,0,9999,77777,9,999999999,0,0,0,99,0.2,0,0
2023,10,29,9,60,9,34.7,14.0,29.0,101325,0,0,0,0,0,0,0,0,0,0,0,3.5,0,0,9999,77777,9,999999999,0,0,0,99,0.2,0,0
2023,10,29,10,60,9,34.6,13.9,29.0,101325,0,0,0,0,0,0,0,0,0,0,0,5.4,0,0,9999,77777,9,999999999,0,0,0,99,0.2,0,0
2023,10,29,11,60,9,33.6,17.3,38.0,101325,0,0,0,0,0,0,0,0,0,0,0,10.4,0,0,9999,77777,9,999999999,0,0,0,99,0.2,0,0
2023,10,29,12,60,9,31.4,22.0,58.0,101325,0,0,0,0,0,0,0,0,0,0,0,19.1,0,0,9999,77777,9,999999999,0,0,0,99,0.2,0,0
2023,10,29,13,60,9,30.0,19.2,53.0,101325,0,0,0,0,0,0,0,0,0,0,0,18.1,0,0,9999,77777,9,999999999,0,0,0,99,0.2,0,0
2023,10,29,14,60,9,28.6,19.9,60.0,101325,0,0,0,0,0,0,0,0,0,0,0,18.5,0,0,9999,77777,9,999999999,0,0,0,99,0.2,0,0
2023,10,29,15,60,9,28.2,19.2,58.0,101325,0,0,0,0,0,0,0,0,0,0,0,16.8,0,0,9999,77777,9,999999999,0,0,0,99,0.2,0,0
2023,10,29,16,60,9,27.8,19.1,59.0,101325,0,0,0,0,0,0,0,0,0,0,0,16.5,0,0,9999,77777,9,999999999,0,0,0,99,0.2,0,0
2023,10,29,17,60,9,27.3,17.4,55.0,101325,0,0,0,0,0,0,0,0,0,0,0,15.0,0,0,9999,77777,9,999999999,0,0,0,99,0.2,0,0
2023,10,29,18,60,9,26.5,15.6,51.0,101325,0,0,0,0,0,0,0,0,0,0,0,9.0,0,0,9999,77777,9,999999999,0,0,0,99,0.2,0,0
2023,10,29,19,60,9,23.8,16.8,65.0,101325,0,0,0,0,0,0,0,0,0,0,0,7.5,0,0,9999,77777,9,999999999,0,0,0,99,0.2,0,0
2023,10,29,20,60,9,24.2,17.4,66.0,101325,0,0,0,0,0,0,0,0,0,0,0,4.4,0,0,9999,77777,9,999999999,0,0,0,99,0.2,0,0
2023,10,29,21,60,9,24.9,16.8,61.0,101325,0,0,0,0,0,0,0,0,0,0,0,4.6,0,0,9999,77777,9,999999999,0,0,0,99,0.2,0,0
2023,10,29,22,60,9,22.3,17.1,72.0,101325,0,0,0,0,0,0,0,0,0,0,0,8.7,0,0,9999,77777,9,999999999,0,0,0,99,0.2,0,0
2023,10,29,23,60,9,21.8,16.7,73.0,101325,0,0,0,0,0,0,0,0,0,0,0,8.8,0,0,9999,77777,9,999999999,0,0,0,99,0.2,0,0
2023,10,29,24,60,9,21.3,16.4,74.0,101325,0,0,0,0,0,0,0,0,0,0,0,8.9,0,0,9999,77777,9,999999999,0,0,0,99,0.2,0,0
2023,10,30,1,60,9,21.2,16.0,72.0,101325,0,0,0,0,0,0,0,0,0,0,0,7.9,0,0,9999,77777,9,999999999,0,0,0,99,0.2,0,0
2023,10,30,2,60,9,22.0,15.8,68.0,101325,0,0,0,0,0,0,0,0,0,0,0,6.0,0,0,9999,77777,9,999999999,0,0,0,99,0.2,0,0
2023,10,30,3,60,9,23.5,16.3,64.0,101325,0,0,0,0,0,0,0,0,0,0,0,7.0,0,0,9999,77777,9,999999999,0,0,0,99,0.2,0,0
2023,10,30,4,60,9,26.2,17.2,58.0,101325,0,0,0,0,0,0,0,0,0,0,0,7.4,0,0,9999,77777,9,999999999,0,0,0,99,0.2,0,0
2023,10,30,5,60,9,29.4,19.0,54.0,101325,0,0,0,0,0,0,0,0,0,0,0,4.4,0,0,9999,77777,9,999999999,0,0,0,99,0.2,0,0
2023,10,30,6,60,9,32.2,16.9,40.0,101325,0,0,0,0,0,0,0,0,0,0,0,5.8,0,0,9999,77777,9,999999999,0,0,0,99,0.2,0,0
2023,10,30,7,60,9,33.8,16.2,35.0,101325,0,0,0,0,0,0,0,0,0,0,0,5.9,0,0,9999,77777,9,999999999,0,0,0,99,0.2,0,0
2023,10,30,8,60,9,34.7,14.1,29.0,101325,0,0,0,0,0,0,0,0,0,0,0,3.7,0,0,9999,77777,9,999999999,0,0,0,99,0.2,0,0
2023,10,30,9,60,9,34.8,14.4,29.0,101325,0,0,0,0,0,0,0,0,0,0,0,2.3,0,0,9999,77777,9,999999999,0,0,0,99,0.2,0,0
2023,10,30,10,60,9,33.7,19.4,43.0,101325,0,0,0,0,0,0,0,0,0,0,0,9.3,0,0,9999,77777,9,999999999,0,0,0,99,0.2,0,0
2023,10,30,11,60,9,32.6,21.0,50.0,101325,0,0,0,0,0,0,0,0,0,0,0,12.2,0,0,9999,77777,9,999999999,0,0,0,99,0.2,0,0
2023,10,30,12,60,9,31.3,21.5,56.0,101325,0,0,0,0,0,0,0,0,0,0,0,14.7,0,0,9999,77777,9,999999999,0,0,0,99,0.2,0,0
2023,10,30,13,60,9,29.8,22.0,63.0,101325,0,0,0,0,0,0,0,0,0,0,0,12.5,0,0,9999,77777,9,999999999,0,0,0,99,0.2,0,0
2023,10,30,14,60,9,28.4,22.5,70.0,101325,0,0,0,0,0,0,0,0,0,0,0,9.9,0,0,9999,77777,9,999999999,0,0,0,99,0.2,0,0
2023,10,30,15,60,9,27.9,21.9,70.0,101325,0,0,0,0,0,0,0,0,0,0,0,11.0,0,0,9999,77777,9,999999999,0,0,0,99,0.2,0,0
2023,10,30,16,60,9,26.9,20.0,66.0,101325,0,0,0,0,0,0,0,0,0,0,0,6.8,0,0,9999,77777,9,999999999,0,0,0,99,0.2,0,0
2023,10,30,17,60,9,25.3,19.2,69.0,101325,0,0,0,0,0,0,0,0,0,0,0,7.5,0,0,9999,77777,9,999999999,0,0,0,99,0.2,0,0
2023,10,30,18,60,9,25.0,18.0,65.0,101325,0,0,0,0,0,0,0,0,0,0,0,5.9,0,0,9999,77777,9,999999999,0,0,0,99,0.2,0,0
2023,10,30,19,60,9,24.0,18.0,69.0,101325,0,0,0,0,0,0,0,0,0,0,0,8.2,0,0,9999,77777,9,999999999,0,0,0,99,0.2,0,0
2023,10,30,20,60,9,24.8,17.1,62.0,101325,0,0,0,0,0,0,0,0,0,0,0,5.9,0,0,9999,77777,9,999999999,0,0,0,99,0.2,0,0
2023,10,30,21,60,9,23.1,17.5,71.0,101325,0,0,0,0,0,0,0,0,0,0,0,7.0,0,0,9999,77777,9,999999999,0,0,0,99,0.2,0,0
2023,10,30,22,60,9,22.4,17.6,75.0,101325,0,0,0,0,0,0,0,0,0,0,0,7.9,0,0,9999,77777,9,999999999,0,0,0,99,0.2,0,0
2023,10,30,23,60,9,22.8,17.6,72.0,101325,0,0,0,0,0,0,0,0,0,0,0,5.9,0,0,9999,77777,9,999999999,0,0,0,99,0.2,0,0
2023,10,30,24,60,9,21.7,17.5,77.0,101325,0,0,0,0,0,0,0,0,0,0,0,6.6,0,0,9999,77777,9,999999999,0,0,0,99,0.2,0,0
2023,10,31,1,60,9,21.7,17.1,75.0,101325,0,0,0,0,0,0,0,0,0,0,0,5.4,0,0,9999,77777,9,999999999,0,0,0,99,0.2,0,0
2023,10,31,2,60,9,23.1,18.2,74.0,101325,0,0,0,0,0,0,0,0,0,0,0,8.7,0,0,9999,77777,9,999999999,0,0,0,99,0.2,0,0
2023,10,31,3,60,9,24.1,18.3,70.0,101325,0,0,0,0,0,0,0,0,0,0,0,8.5,0,0,9999,77777,9,999999999,0,0,0,99,0.2,0,0
2023,10,31,4,60,9,26.7,19.5,65.0,101325,0,0,0,0,0,0,0,0,0,0,0,7.9,0,0,9999,77777,9,999999999,0,0,0,99,0.2,0,0
2023,10,31,5,60,9,29.8,19.6,54.0,101325,0,0,0,0,0,0,0,0,0,0,0,5.8,0,0,9999,77777,9,999999999,0,0,0,99,0.2,0,0
2023,10,31,6,60,9,31.9,17.5,42.0,101325,0,0,0,0,0,0,0,0,0,0,0,6.2,0,0,9999,77777,9,999999999,0,0,0,99,0.2,0,0
2023,10,31,7,60,9,33.2,17.9,40.0,101325,0,0,0,0,0,0,0,0,0,0,0,6.1,0,0,9999,77777,9,999999999,0,0,0,99,0.2,0,0
2023,10,31,8,60,9,34.1,16.7,36.0,101325,0,0,0,0,0,0,0,0,0,0,0,3.2,0,0,9999,77777,9,999999999,0,0,0,99,0.2,0,0
2023,10,31,9,60,9,34.6,15.8,33.0,101325,0,0,0,0,0,0,0,0,0,0,0,2.9,0,0,9999,77777,9,999999999,0,0,0,99,0.2,0,0
2023,10,31,10,60,9,34.0,18.2,39.0,101325,0,0,0,0,0,0,0,0,0,0,0,9.4,0,0,9999,77777,9,999999999,0,0,0,99,0.2,0,0
2023,10,31,11,60,9,32.7,21.3,51.0,101325,0,0,0,0,0,0,0,0,0,0,0,12.2,0,0,9999,77777,9,999999999,0,0,0,99,0.2,0,0
2023,10,31,12,60,9,32.4,22.5,56.0,101325,0,0,0,0,0,0,0,0,0,0,0,7.1,0,0,9999,77777,9,999999999,0,0,0,99,0.2,0,0
2023,10,31,13,60,9,30.8,24.5,69.0,101325,0,0,0,0,0,0,0,0,0,0,0,7.3,0,0,9999,77777,9,999999999,0,0,0,99,0.2,0,0
2023,10,31,14,60,9,28.9,21.6,65.0,101325,0,0,0,0,0,0,0,0,0,0,0,13.2,0,0,9999,77777,9,999999999,0,0,0,99,0.2,0,0
2023,10,31,15,60,9,28.5,21.1,64.0,101325,0,0,0,0,0,0,0,0,0,0,0,14.9,0,0,9999,77777,9,999999999,0,0,0,99,0.2,0,0
2023,10,31,16,60,9,28.4,17.8,53.0,101325,0,0,0,0,0,0,0,0,0,0,0,13.8,0,0,9999,77777,9,999999999,0,0,0,99,0.2,0,0
2023,10,31,17,60,9,27.7,17.1,53.0,101325,0,0,0,0,0,0,0,0,0,0,0,12.8,0,0,9999,77777,9,999999999,0,0,0,99,0.2,0,0
2023,10,31,18,60,9,27.0,16.7,53.0,101325,0,0,0,0,0,0,0,0,0,0,0,10.8,0,0,9999,77777,9,999999999,0,0,0,99,0.2,0,0
2023,10,31,19,60,9,25.3,17.1,60.0,101325,0,0,0,0,0,0,0,0,0,0,0,7.4,0,0,9999,77777,9,999999999,0,0,0,99,0.2,0,0
2023,10,31,20,60,9,23.9,17.7,68.0,101325,0,0,0,0,0,0,0,0,0,0,0,8.0,0,0,9999,77777,9,999999999,0,0,0,99,0.2,0,0
2023,10,31,21,60,9,23.3,17.6,70.0,101325,0,0,0,0,0,0,0,0,0,0,0,8.2,0,0,9999,77777,9,999999999,0,0,0,99,0.2,0,0
2023,10,31,22,60,9,23.2,17.3,69.0,101325,0,0,0,0,0,0,0,0,0,0,0,6.2,0,0,9999,77777,9,999999999,0,0,0,99,0.2,0,0
2023,10,31,23,60,9,23.1,16.0,64.0,101325,0,0,0,0,0,0,0,0,0,0,0,7.1,0,0,9999,77777,9,999999999,0,0,0,99,0.2,0,0
2023,10,31,24,60,9,22.7,14.6,60.0,101325,0,0,0,0,0,0,0,0,0,0,0,8.1,0,0,9999,77777,9,999999999,0,0,0,99,0.2,0,0
2023,11,1,1,60,9,22.3,13.9,59.0,101325,0,0,0,0,0,0,0,0,0,0,0,7.7,0,0,9999,77777,9,999999999,0,0,0,99,0.2,0,0
2023,11,1,2,60,9,22.4,15.7,66.0,101325,0,0,0,0,0,0,0,0,0,0,0,8.0,0,0,9999,77777,9,999999999,0,0,0,99,0.2,0,0
2023,11,1,3,60,9,23.3,15.8,63.0,101325,0,0,0,0,0,0,0,0,0,0,0,9.2,0,0,9999,77777,9,999999999,0,0,0,99,0.2,0,0
2023,11,1,4,60,9,25.8,17.3,60.0,101325,0,0,0,0,0,0,0,0,0,0,0,9.9,0,0,9999,77777,9,999999999,0,0,0,99,0.2,0,0
2023,11,1,5,60,9,28.8,17.8,51.0,101325,0,0,0,0,0,0,0,0,0,0,0,7.3,0,0,9999,77777,9,999999999,0,0,0,99,0.2,0,0
2023,11,1,6,60,9,31.3,17.7,44.0,101325,0,0,0,0,0,0,0,0,0,0,0,5.9,0,0,9999,77777,9,999999999,0,0,0,99,0.2,0,0
2023,11,1,7,60,9,32.8,16.9,39.0,101325,0,0,0,0,0,0,0,0,0,0,0,6.1,0,0,9999,77777,9,999999999,0,0,0,99,0.2,0,0
2023,11,1,8,60,9,33.9,15.1,33.0,101325,0,0,0,0,0,0,0,0,0,0,0,3.6,0,0,9999,77777,9,999999999,0,0,0,99,0.2,0,0
2023,11,1,9,60,9,34.1,14.7,31.0,101325,0,0,0,0,0,0,0,0,0,0,0,4.7,0,0,9999,77777,9,999999999,0,0,0,99,0.2,0,0
2023,11,1,10,60,9,33.6,17.0,37.0,101325,0,0,0,0,0,0,0,0,0,0,0,6.6,0,0,9999,77777,9,999999999,0,0,0,99,0.2,0,0
2023,11,1,11,60,9,32.6,19.9,47.0,101325,0,0,0,0,0,0,0,0,0,0,0,10.2,0,0,9999,77777,9,999999999,0,0,0,99,0.2,0,0
2023,11,1,12,60,9,31.2,20.6,53.0,101325,0,0,0,0,0,0,0,0,0,0,0,14.8,0,0,9999,77777,9,999999999,0,0,0,99,0.2,0,0
2023,11,1,13,60,9,29.8,21.0,59.0,101325,0,0,0,0,0,0,0,0,0,0,0,12.3,0,0,9999,77777,9,999999999,0,0,0,99,0.2,0,0
2023,11,1,14,60,9,28.4,22.0,68.0,101325,0,0,0,0,0,0,0,0,0,0,0,13.8,0,0,9999,77777,9,999999999,0,0,0,99,0.2,0,0
2023,11,1,15,60,9,27.9,21.4,68.0,101325,0,0,0,0,0,0,0,0,0,0,0,12.9,0,0,9999,77777,9,999999999,0,0,0,99,0.2,0,0
2023,11,1,16,60,9,27.6,21.6,70.0,101325,0,0,0,0,0,0,0,0,0,0,0,13.8,0,0,9999,77777,9,999999999,0,0,0,99,0.2,0,0
2023,11,1,17,60,9,26.9,21.0,70.0,101325,0,0,0,0,0,0,0,0,0,0,0,11.7,0,0,9999,77777,9,999999999,0,0,0,99,0.2,0,0
2023,11,1,18,60,9,26.6,19.5,65.0,101325,0,0,0,0,0,0,0,0,0,0,0,11.6,0,0,9999,77777,9,999999999,0,0,0,99,0.2,0,0
2023,11,1,19,60,9,25.5,18.5,65.0,101325,0,0,0,0,0,0,0,0,0,0,0,6.3,0,0,9999,77777,9,999999999,0,0,0,99,0.2,0,0
2023,11,1,20,60,9,23.6,18.8,74.0,101325,0,0,0,0,0,0,0,0,0,0,0,8.4,0,0,9999,77777,9,999999999,0,0,0,99,0.2,0,0
2023,11,1,21,60,9,23.2,18.1,73.0,101325,0,0,0,0,0,0,0,0,0,0,0,6.2,0,0,9999,77777,9,999999999,0,0,0,99,0.2,0,0
2023,11,1,22,60,9,22.6,17.4,72.0,101325,0,0,0,0,0,0,0,0,0,0,0,6.3,0,0,9999,77777,9,999999999,0,0,0,99,0.2,0,0
2023,11,1,23,60,9,22.8,15.8,64.0,101325,0,0,0,0,0,0,0,0,0,0,0,7.4,0,0,9999,77777,9,999999999,0,0,0,99,0.2,0,0
2023,11,1,24,60,9,22.9,15.0,61.0,101325,0,0,0,0,0,0,0,0,0,0,0,8.7,0,0,9999,77777,9,999999999,0,0,0,99,0.2,0,0
2023,11,2,1,60,9,22.5,14.9,62.0,101325,0,0,0,0,0,0,0,0,0,0,0,7.1,0,0,9999,77777,9,999999999,0,0,0,99,0.2,0,0
2023,11,2,2,60,9,21.9,16.6,72.0,101325,0,0,0,0,0,0,0,0,0,0,0,6.8,0,0,9999,77777,9,999999999,0,0,0,99,0.2,0,0
2023,11,2,3,60,9,22.8,16.9,69.0,101325,0,0,0,0,0,0,0,0,0,0,0,9.2,0,0,9999,77777,9,999999999,0,0,0,99,0.2,0,0
2023,11,2,4,60,9,25.8,18.1,63.0,101325,0,0,0,0,0,0,0,0,0,0,0,8.7,0,0,9999,77777,9,999999999,0,0,0,99,0.2,0,0
2023,11,2,5,60,9,29.2,18.8,54.0,101325,0,0,0,0,0,0,0,0,0,0,0,7.8,0,0,9999,77777,9,999999999,0,0,0,99,0.2,0,0
2023,11,2,6,60,9,31.7,17.7,43.0,101325,0,0,0,0,0,0,0,0,0,0,0,8.1,0,0,9999,77777,9,999999999,0,0,0,99,0.2,0,0
2023,11,2,7,60,9,33.1,17.3,39.0,101325,0,0,0,0,0,0,0,0,0,0,0,5.8,0,0,9999,77777,9,999999999,0,0,0,99,0.2,0,0
2023,11,2,8,60,9,33.8,15.6,34.0,101325,0,0,0,0,0,0,0,0,0,0,0,5.0,0,0,9999,77777,9,999999999,0,0,0,99,0.2,0,0
2023,11,2,9,60,9,34.0,15.6,33.0,101325,0,0,0,0,0,0,0,0,0,0,0,6.9,0,0,9999,77777,9,999999999,0,0,0,99,0.2,0,0
2023,11,2,10,60,9,33.4,17.2,38.0,101325,0,0,0,0,0,0,0,0,0,0,0,10.7,0,0,9999,77777,9,999999999,0,0,0,99,0.2,0,0
2023,11,2,11,60,9,32.5,18.2,43.0,101325,0,0,0,0,0,0,0,0,0,0,0,12.8,0,0,9999,77777,9,999999999,0,0,0,99,0.2,0,0
2023,11,2,12,60,9,30.9,19.4,50.0,101325,0,0,0,0,0,0,0,0,0,0,0,14.5,0,0,9999,77777,9,999999999,0,0,0,99,0.2,0,0
2023,11,2,13,60,9,29.3,20.9,60.0,101325,0,0,0,0,0,0,0,0,0,0,0,14.9,0,0,9999,77777,9,999999999,0,0,0,99,0.2,0,0
2023,11,2,14,60,9,28.1,21.3,67.0,101325,0,0,0,0,0,0,0,0,0,0,0,16.1,0,0,9999,77777,9,999999999,0,0,0,99,0.2,0,0
2023,11,2,15,60,9,27.9,21.2,67.0,101325,0,0,0,0,0,0,0,0,0,0,0,17.2,0,0,9999,77777,9,999999999,0,0,0,99,0.2,0,0
2023,11,2,16,60,9,27.8,20.5,65.0,101325,0,0,0,0,0,0,0,0,0,0,0,15.3,0,0,9999,77777,9,999999999,0,0,0,99,0.2,0,0
2023,11,2,17,60,9,27.5,19.7,62.0,101325,0,0,0,0,0,0,0,0,0,0,0,14.8,0,0,9999,77777,9,999999999,0,0,0,99,0.2,0,0
2023,11,2,18,60,9,27.0,18.9,61.0,101325,0,0,0,0,0,0,0,0,0,0,0,9.7,0,0,9999,77777,9,999999999,0,0,0,99,0.2,0,0
2023,11,2,19,60,9,25.5,19.0,67.0,101325,0,0,0,0,0,0,0,0,0,0,0,6.5,0,0,9999,77777,9,999999999,0,0,0,99,0.2,0,0
2023,11,2,20,60,9,24.2,18.4,70.0,101325,0,0,0,0,0,0,0,0,0,0,0,7.0,0,0,9999,77777,9,999999999,0,0,0,99,0.2,0,0
2023,11,2,21,60,9,24.1,18.1,69.0,101325,0,0,0,0,0,0,0,0,0,0,0,6.4,0,0,9999,77777,9,999999999,0,0,0,99,0.2,0,0
2023,11,2,22,60,9,22.7,18.0,75.0,101325,0,0,0,0,0,0,0,0,0,0,0,8.1,0,0,9999,77777,9,999999999,0,0,0,99,0.2,0,0
2023,11,2,23,60,9,22.9,17.7,73.0,101325,0,0,0,0,0,0,0,0,0,0,0,6.4,0,0,9999,77777,9,999999999,0,0,0,99,0.2,0,0
2023,11,2,24,60,9,22.8,17.3,71.0,101325,0,0,0,0,0,0,0,0,0,0,0,7.8,0,0,9999,77777,9,999999999,0,0,0,99,0.2,0,0
2023,11,3,1,60,9,22.7,16.7,69.0,101325,0,0,0,0,0,0,0,0,0,0,0,8.6,0,0,9999,77777,9,999999999,0,0,0,99,0.2,0,0
2023,11,3,2,60,9,23.1,17.3,70.0,101325,0,0,0,0,0,0,0,0,0,0,0,9.3,0,0,9999,77777,9,999999999,0,0,0,99,0.2,0,0
2023,11,3,3,60,9,23.8,17.2,67.0,101325,0,0,0,0,0,0,0,0,0,0,0,10.9,0,0,9999,77777,9,999999999,0,0,0,99,0.2,0,0
2023,11,3,4,60,9,26.3,18.6,62.0,101325,0,0,0,0,0,0,0,0,0,0,0,11.0,0,0,9999,77777,9,999999999,0,0,0,99,0.2,0,0
2023,11,3,5,60,9,29.4,18.9,53.0,101325,0,0,0,0,0,0,0,0,0,0,0,9.8,0,0,9999,77777,9,999999999,0,0,0,99,0.2,0,0
2023,11,3,6,60,9,32.1,18.6,45.0,101325,0,0,0,0,0,0,0,0,0,0,0,9.7,0,0,9999,77777,9,999999999,0,0,0,99,0.2,0,0
2023,11,3,7,60,9,33.9,17.4,38.0,101325,0,0,0,0,0,0,0,0,0,0,0,9.6,0,0,9999,77777,9,999999999,0,0,0,99,0.2,0,0
2023,11,3,8,60,9,34.6,15.7,32.0,101325,0,0,0,0,0,0,0,0,0,0,0,6.5,0,0,9999,77777,9,999999999,0,0,0,99,0.2,0,0
2023,11,3,9,60,9,34.5,15.4,32.0,101325,0,0,0,0,0,0,0,0,0,0,0,6.8,0,0,9999,77777,9,999999999,0,0,0,99,0.2,0,0
2023,11,3,10,60,9,33.3,20.7,48.0,101325,0,0,0,0,0,0,0,0,0,0,0,12.5,0,0,9999,77777,9,999999999,0,0,0,99,0.2,0,0
2023,11,3,11,60,9,32.5,19.6,47.0,101325,0,0,0,0,0,0,0,0,0,0,0,16.3,0,0,9999,77777,9,999999999,0,0,0,99,0.2,0,0
2023,11,3,12,60,9,31.3,19.3,49.0,101325,0,0,0,0,0,0,0,0,0,0,0,15.3,0,0,9999,77777,9,999999999,0,0,0,99,0.2,0,0
2023,11,3,13,60,9,29.7,21.5,62.0,101325,0,0,0,0,0,0,0,0,0,0,0,15.9,0,0,9999,77777,9,999999999,0,0,0,99,0.2,0,0
2023,11,3,14,60,9,29.0,19.9,58.0,101325,0,0,0,0,0,0,0,0,0,0,0,18.5,0,0,9999,77777,9,999999999,0,0,0,99,0.2,0,0
2023,11,3,15,60,9,28.7,18.2,53.0,101325,0,0,0,0,0,0,0,0,0,0,0,19.9,0,0,9999,77777,9,999999999,0,0,0,99,0.2,0,0
2023,11,3,16,60,9,28.5,17.2,50.0,101325,0,0,0,0,0,0,0,0,0,0,0,19.6,0,0,9999,77777,9,999999999,0,0,0,99,0.2,0,0
2023,11,3,17,60,9,28.0,17.8,54.0,101325,0,0,0,0,0,0,0,0,0,0,0,16.8,0,0,9999,77777,9,999999999,0,0,0,99,0.2,0,0
2023,11,3,18,60,9,27.2,17.6,56.0,101325,0,0,0,0,0,0,0,0,0,0,0,10.9,0,0,9999,77777,9,999999999,0,0,0,99,0.2,0,0
2023,11,3,19,60,9,25.3,17.4,61.0,101325,0,0,0,0,0,0,0,0,0,0,0,7.2,0,0,9999,77777,9,999999999,0,0,0,99,0.2,0,0
2023,11,3,20,60,9,24.3,16.9,63.0,101325,0,0,0,0,0,0,0,0,0,0,0,7.4,0,0,9999,77777,9,999999999,0,0,0,99,0.2,0,0
2023,11,3,21,60,9,23.9,16.3,63.0,101325,0,0,0,0,0,0,0,0,0,0,0,6.5,0,0,9999,77777,9,999999999,0,0,0,99,0.2,0,0
2023,11,3,22,60,9,24.1,16.2,61.0,101325,0,0,0,0,0,0,0,0,0,0,0,7.7,0,0,9999,77777,9,999999999,0,0,0,99,0.2,0,0
2023,11,3,23,60,9,24.0,16.0,61.0,101325,0,0,0,0,0,0,0,0,0,0,0,7.8,0,0,9999,77777,9,999999999,0,0,0,99,0.2,0,0
2023,11,3,24,60,9,23.8,15.6,60.0,101325,0,0,0,0,0,0,0,0,0,0,0,8.4,0,0,9999,77777,9,999999999,0,0,0,99,0.2,0,0
2023,11,4,1,60,9,23.6,14.7,57.0,101325,0,0,0,0,0,0,0,0,0,0,0,9.2,0,0,9999,77777,9,999999999,0,0,0,99,0.2,0,0
2023,11,4,2,60,9,23.9,16.6,64.0,101325,0,0,0,0,0,0,0,0,0,0,0,9.5,0,0,9999,77777,9,999999999,0,0,0,99,0.2,0,0
2023,11,4,3,60,9,24.7,16.2,59.0,101325,0,0,0,0,0,0,0,0,0,0,0,11.6,0,0,9999,77777,9,999999999,0,0,0,99,0.2,0,0
2023,11,4,4,60,9,26.8,17.2,56.0,101325,0,0,0,0,0,0,0,0,0,0,0,10.2,0,0,9999,77777,9,999999999,0,0,0,99,0.2,0,0
2023,11,4,5,60,9,29.4,18.5,52.0,101325,0,0,0,0,0,0,0,0,0,0,0,9.1,0,0,9999,77777,9,999999999,0,0,0,99,0.2,0,0
2023,11,4,6,60,9,32.2,18.2,44.0,101325,0,0,0,0,0,0,0,0,0,0,0,7.9,0,0,9999,77777,9,999999999,0,0,0,99,0.2,0,0
2023,11,4,7,60,9,34.2,17.0,36.0,101325,0,0,0,0,0,0,0,0,0,0,0,10.1,0,0,9999,77777,9,999999999,0,0,0,99,0.2,0,0
2023,11,4,8,60,9,35.0,16.5,33.0,101325,0,0,0,0,0,0,0,0,0,0,0,8.3,0,0,9999,77777,9,999999999,0,0,0,99,0.2,0,0
2023,11,4,9,60,9,35.3,16.3,32.0,101325,0,0,0,0,0,0,0,0,0,0,0,5.3,0,0,9999,77777,9,999999999,0,0,0,99,0.2,0,0
2023,11,4,10,60,9,35.3,16.1,32.0,101325,0,0,0,0,0,0,0,0,0,0,0,6.4,0,0,9999,77777,9,999999999,0,0,0,99,0.2,0,0
2023,11,4,11,60,9,35.1,16.2,33.0,101325,0,0,0,0,0,0,0,0,0,0,0,7.3,0,0,9999,77777,9,999999999,0,0,0,99,0.2,0,0
2023,11,4,12,60,9,32.6,22.2,54.0,101325,0,0,0,0,0,0,0,0,0,0,0,12.2,0,0,9999,77777,9,999999999,0,0,0,99,0.2,0,0
2023,11,4,13,60,9,30.3,21.9,61.0,101325,0,0,0,0,0,0,0,0,0,0,0,14.6,0,0,9999,77777,9,999999999,0,0,0,99,0.2,0,0
2023,11,4,14,60,9,29.2,20.9,61.0,101325,0,0,0,0,0,0,0,0,0,0,0,9.2,0,0,9999,77777,9,999999999,0,0,0,99,0.2,0,0
2023,11,4,15,60,9,28.3,22.3,70.0,101325,0,0,0,0,0,0,0,0,0,0,0,9.5,0,0,9999,77777,9,999999999,0,0,0,99,0.2,0,0
2023,11,4,16,60,9,28.2,19.8,61.0,101325,0,0,0,0,0,0,0,0,0,0,0,9.5,0,0,9999,77777,9,999999999,0,0,0,99,0.2,0,0
2023,11,4,17,60,9,27.8,19.4,60.0,101325,0,0,0,0,0,0,0,0,0,0,0,9.9,0,0,9999,77777,9,999999999,0,0,0,99,0.2,0,0
2023,11,4,18,60,9,27.1,18.6,60.0,101325,0,0,0,0,0,0,0,0,0,0,0,7.3,0,0,9999,77777,9,999999999,0,0,0,99,0.2,0,0
2023,11,4,19,60,9,25.5,19.0,67.0,101325,0,0,0,0,0,0,0,0,0,0,0,7.1,0,0,9999,77777,9,999999999,0,0,0,99,0.2,0,0
2023,11,4,20,60,9,24.8,18.9,70.0,101325,0,0,0,0,0,0,0,0,0,0,0,6.5,0,0,9999,77777,9,999999999,0,0,0,99,0.2,0,0
2023,11,4,21,60,9,24.6,18.8,70.0,101325,0,0,0,0,0,0,0,0,0,0,0,6.8,0,0,9999,77777,9,999999999,0,0,0,99,0.2,0,0
2023,11,4,22,60,9,25.6,17.9,63.0,101325,0,0,0,0,0,0,0,0,0,0,0,5.4,0,0,9999,77777,9,999999999,0,0,0,99,0.2,0,0
2023,11,4,23,60,9,23.5,18.2,72.0,101325,0,0,0,0,0,0,0,0,0,0,0,6.8,0,0,9999,77777,9,999999999,0,0,0,99,0.2,0,0
2023,11,4,24,60,9,22.8,17.7,73.0,101325,0,0,0,0,0,0,0,0,0,0,0,6.9,0,0,9999,77777,9,999999999,0,0,0,99,0.2,0,0
2023,11,5,1,60,9,22.8,17.2,71.0,101325,0,0,0,0,0,0,0,0,0,0,0,5.6,0,0,9999,77777,9,999999999,0,0,0,99,0.2,0,0
2023,11,5,2,60,9,24.3,18.1,68.0,101325,0,0,0,0,0,0,0,0,0,0,0,8.9,0,0,9999,77777,9,999999999,0,0,0,99,0.2,0,0
2023,11,5,3,60,9,25.5,18.1,64.0,101325,0,0,0,0,0,0,0,0,0,0,0,10.8,0,0,9999,77777,9,999999999,0,0,0,99,0.2,0,0
2023,11,5,4,60,9,27.7,19.0,59.0,101325,0,0,0,0,0,0,0,0,0,0,0,10.7,0,0,9999,77777,9,999999999,0,0,0,99,0.2,0,0
2023,11,5,5,60,9,30.6,19.3,51.0,101325,0,0,0,0,0,0,0,0,0,0,0,7.6,0,0,9999,77777,9,999999999,0,0,0,99,0.2,0,0
2023,11,5,6,60,9,32.9,18.3,42.0,101325,0,0,0,0,0,0,0,0,0,0,0,9.5,0,0,9999,77777,9,999999999,0,0,0,99,0.2,0,0
2023,11,5,7,60,9,33.8,18.5,40.0,101325,0,0,0,0,0,0,0,0,0,0,0,8.3,0,0,9999,77777,9,999999999,0,0,0,99,0.2,0,0
2023,11,5,8,60,9,34.8,16.9,35.0,101325,0,0,0,0,0,0,0,0,0,0,0,5.9,0,0,9999,77777,9,999999999,0,0,0,99,0.2,0,0
2023,11,5,9,60,9,35.1,16.6,33.0,101325,0,0,0,0,0,0,0,0,0,0,0,1.3,0,0,9999,77777,9,999999999,0,0,0,99,0.2,0,0
2023,11,5,10,60,9,35.0,16.7,34.0,101325,0,0,0,0,0,0,0,0,0,0,0,5.1,0,0,9999,77777,9,999999999,0,0,0,99,0.2,0,0
2023,11,5,11,60,9,33.7,19.6,44.0,101325,0,0,0,0,0,0,0,0,0,0,0,11.0,0,0,9999,77777,9,999999999,0,0,0,99,0.2,0,0
2023,11,5,12,60,9,32.6,21.5,52.0,101325,0,0,0,0,0,0,0,0,0,0,0,11.2,0,0,9999,77777,9,999999999,0,0,0,99,0.2,0,0
2023,11,5,13,60,9,30.7,23.9,67.0,101325,0,0,0,0,0,0,0,0,0,0,0,12.4,0,0,9999,77777,9,999999999,0,0,0,99,0.2,0,0
2023,11,5,14,60,9,29.4,22.7,67.0,101325,0,0,0,0,0,0,0,0,0,0,0,12.5,0,0,9999,77777,9,999999999,0,0,0,99,0.2,0,0
2023,11,5,15,60,9,28.9,22.6,69.0,101325,0,0,0,0,0,0,0,0,0,0,0,14.2,0,0,9999,77777,9,999999999,0,0,0,99,0.2,0,0
2023,11,5,16,60,9,28.6,23.0,72.0,101325,0,0,0,0,0,0,0,0,0,0,0,15.5,0,0,9999,77777,9,999999999,0,0,0,99,0.2,0,0
2023,11,5,17,60,9,28.1,23.5,76.0,101325,0,0,0,0,0,0,0,0,0,0,0,15.2,0,0,9999,77777,9,999999999,0,0,0,99,0.2,0,0
2023,11,5,18,60,9,27.9,21.0,66.0,101325,0,0,0,0,0,0,0,0,0,0,0,14.4,0,0,9999,77777,9,999999999,0,0,0,99,0.2,0,0
2023,11,5,19,60,9,27.2,19.0,61.0,101325,0,0,0,0,0,0,0,0,0,0,0,8.0,0,0,9999,77777,9,999999999,0,0,0,99,0.2,0,0
2023,11,5,20,60,9,25.3,19.3,69.0,101325,0,0,0,0,0,0,0,0,0,0,0,7.6,0,0,9999,77777,9,999999999,0,0,0,99,0.2,0,0
2023,11,5,21,60,9,25.3,19.5,70.0,101325,0,0,0,0,0,0,0,0,0,0,0,6.5,0,0,9999,77777,9,999999999,0,0,0,99,0.2,0,0
2023,11,5,22,60,9,24.1,19.6,76.0,101325,0,0,0,0,0,0,0,0,0,0,0,6.9,0,0,9999,77777,9,999999999,0,0,0,99,0.2,0,0
2023,11,5,23,60,9,23.3,19.3,78.0,101325,0,0,0,0,0,0,0,0,0,0,0,7.2,0,0,9999,77777,9,999999999,0,0,0,99,0.2,0,0
2023,11,5,24,60,9,23.2,18.1,73.0,101325,0,0,0,0,0,0,0,0,0,0,0,6.1,0,0,9999,77777,9,999999999,0,0,0,99,0.2,0,0
2023,11,6,1,60,9,22.9,17.3,71.0,101325,0,0,0,0,0,0,0,0,0,0,0,6.6,0,0,9999,77777,9,999999999,0,0,0,99,0.2,0,0
2023,11,6,2,60,9,23.1,18.3,75.0,101325,0,0,0,0,0,0,0,0,0,0,0,7.7,0,0,9999,77777,9,999999999,0,0,0,99,0.2,0,0
2023,11,6,3,60,9,24.0,18.3,70.0,101325,0,0,0,0,0,0,0,0,0,0,0,9.7,0,0,9999,77777,9,999999999,0,0,0,99,0.2,0,0
2023,11,6,4,60,9,26.8,18.5,60.0,101325,0,0,0,0,0,0,0,0,0,0,0,9.7,0,0,9999,77777,9,999999999,0,0,0,99,0.2,0,0
2023,11,6,5,60,9,30.1,18.3,49.0,101325,0,0,0,0,0,0,0,0,0,0,0,7.8,0,0,9999,77777,9,999999999,0,0,0,99,0.2,0,0
2023,11,6,6,60,9,32.5,17.6,41.0,101325,0,0,0,0,0,0,0,0,0,0,0,10.1,0,0,9999,77777,9,999999999,0,0,0,99,0.2,0,0
2023,11,6,7,60,9,33.8,17.8,39.0,101325,0,0,0,0,0,0,0,0,0,0,0,11.1,0,0,9999,77777,9,999999999,0,0,0,99,0.2,0,0
2023,11,6,8,60,9,35.0,16.0,32.0,101325,0,0,0,0,0,0,0,0,0,0,0,8.4,0,0,9999,77777,9,999999999,0,0,0,99,0.2,0,0
2023,11,6,9,60,9,35.4,14.2,28.0,101325,0,0,0,0,0,0,0,0,0,0,0,4.8,0,0,9999,77777,9,999999999,0,0,0,99,0.2,0,0
2023,11,6,10,60,9,35.0,15.2,31.0,101325,0,0,0,0,0,0,0,0,0,0,0,7.4,0,0,9999,77777,9,999999999,0,0,0,99,0.2,0,0
2023,11,6,11,60,9,34.2,17.7,38.0,101325,0,0,0,0,0,0,0,0,0,0,0,8.1,0,0,9999,77777,9,999999999,0,0,0,99,0.2,0,0
2023,11,6,12,60,9,32.7,21.5,52.0,101325,0,0,0,0,0,0,0,0,0,0,0,10.0,0,0,9999,77777,9,999999999,0,0,0,99,0.2,0,0
2023,11,6,13,60,9,30.6,24.8,71.0,101325,0,0,0,0,0,0,0,0,0,0,0,12.4,0,0,9999,77777,9,999999999,0,0,0,99,0.2,0,0
2023,11,6,14,60,9,28.9,21.1,63.0,101325,0,0,0,0,0,0,0,0,0,0,0,17.1,0,0,9999,77777,9,999999999,0,0,0,99,0.2,0,0
2023,11,6,15,60,9,28.5,19.8,59.0,101325,0,0,0,0,0,0,0,0,0,0,0,14.8,0,0,9999,77777,9,999999999,0,0,0,99,0.2,0,0
2023,11,6,16,60,9,28.1,18.4,56.0,101325,0,0,0,0,0,0,0,0,0,0,0,15.2,0,0,9999,77777,9,999999999,0,0,0,99,0.2,0,0
2023,11,6,17,60,9,27.7,16.0,49.0,101325,0,0,0,0,0,0,0,0,0,0,0,12.6,0,0,9999,77777,9,999999999,0,0,0,99,0.2,0,0
2023,11,6,18,60,9,27.1,15.7,50.0,101325,0,0,0,0,0,0,0,0,0,0,0,10.8,0,0,9999,77777,9,999999999,0,0,0,99,0.2,0,0
2023,11,6,19,60,9,26.7,15.4,50.0,101325,0,0,0,0,0,0,0,0,0,0,0,11.2,0,0,9999,77777,9,999999999,0,0,0,99,0.2,0,0
2023,11,6,20,60,9,25.8,15.8,54.0,101325,0,0,0,0,0,0,0,0,0,0,0,8.7,0,0,9999,77777,9,999999999,0,0,0,99,0.2,0,0
2023,11,6,21,60,9,24.0,16.5,63.0,101325,0,0,0,0,0,0,0,0,0,0,0,6.0,0,0,9999,77777,9,999999999,0,0,0,99,0.2,0,0
2023,11,6,22,60,9,22.8,16.8,69.0,101325,0,0,0,0,0,0,0,0,0,0,0,6.8,0,0,9999,77777,9,999999999,0,0,0,99,0.2,0,0
2023,11,6,23,60,9,22.2,16.3,69.0,101325,0,0,0,0,0,0,0,0,0,0,0,6.5,0,0,9999,77777,9,999999999,0,0,0,99,0.2,0,0
2023,11,6,24,60,9,22.6,14.8,61.0,101325,0,0,0,0,0,0,0,0,0,0,0,7.6,0,0,9999,77777,9,999999999,0,0,0,99,0.2,0,0
2023,11,7,1,60,9,22.6,13.4,56.0,101325,0,0,0,0,0,0,0,0,0,0,0,8.2,0,0,9999,77777,9,999999999,0,0,0,99,0.2,0,0
2023,11,7,2,60,9,22.2,14.2,61.0,101325,0,0,0,0,0,0,0,0,0,0,0,7.6,0,0,9999,77777,9,999999999,0,0,0,99,0.2,0,0
2023,11,7,3,60,9,23.0,15.0,61.0,101325,0,0,0,0,0,0,0,0,0,0,0,6.8,0,0,9999,77777,9,999999999,0,0,0,99,0.2,0,0
2023,11,7,4,60,9,25.5,16.5,58.0,101325,0,0,0,0,0,0,0,0,0,0,0,6.5,0,0,9999,77777,9,999999999,0,0,0,99,0.2,0,0
2023,11,7,5,60,9,28.7,17.1,49.0,101325,0,0,0,0,0,0,0,0,0,0,0,6.0,0,0,9999,77777,9,999999999,0,0,0,99,0.2,0,0
2023,11,7,6,60,9,31.4,17.5,43.0,101325,0,0,0,0,0,0,0,0,0,0,0,5.6,0,0,9999,77777,9,999999999,0,0,0,99,0.2,0,0
2023,11,7,7,60,9,33.0,18.7,43.0,101325,0,0,0,0,0,0,0,0,0,0,0,5.5,0,0,9999,77777,9,999999999,0,0,0,99,0.2,0,0
2023,11,7,8,60,9,33.9,17.2,37.0,101325,0,0,0,0,0,0,0,0,0,0,0,1.6,0,0,9999,77777,9,999999999,0,0,0,99,0.2,0,0
2023,11,7,9,60,9,34.2,15.8,33.0,101325,0,0,0,0,0,0,0,0,0,0,0,5.0,0,0,9999,77777,9,999999999,0,0,0,99,0.2,0,0
2023,11,7,10,60,9,33.1,19.7,45.0,101325,0,0,0,0,0,0,0,0,0,0,0,12.4,0,0,9999,77777,9,999999999,0,0,0,99,0.2,0,0
2023,11,7,11,60,9,32.2,20.5,50.0,101325,0,0,0,0,0,0,0,0,0,0,0,13.7,0,0,9999,77777,9,999999999,0,0,0,99,0.2,0,0
2023,11,7,12,60,9,31.1,21.2,56.0,101325,0,0,0,0,0,0,0,0,0,0,0,15.6,0,0,9999,77777,9,999999999,0,0,0,99,0.2,0,0
2023,11,7,13,60,9,29.3,21.3,62.0,101325,0,0,0,0,0,0,0,0,0,0,0,17.6,0,0,9999,77777,9,999999999,0,0,0,99,0.2,0,0
2023,11,7,14,60,9,28.5,21.8,67.0,101325,0,0,0,0,0,0,0,0,0,0,0,18.5,0,0,9999,77777,9,999999999,0,0,0,99,0.2,0,0
2023,11,7,15,60,9,28.3,20.4,62.0,101325,0,0,0,0,0,0,0,0,0,0,0,19.1,0,0,9999,77777,9,999999999,0,0,0,99,0.2,0,0
2023,11,7,16,60,9,28.2,20.1,62.0,101325,0,0,0,0,0,0,0,0,0,0,0,16.5,0,0,9999,77777,9,999999999,0,0,0,99,0.2,0,0
2023,11,7,17,60,9,28.0,18.9,58.0,101325,0,0,0,0,0,0,0,0,0,0,0,14.1,0,0,9999,77777,9,999999999,0,0,0,99,0.2,0,0
2023,11,7,18,60,9,26.2,17.8,60.0,101325,0,0,0,0,0,0,0,0,0,0,0,7.9,0,0,9999,77777,9,999999999,0,0,0,99,0.2,0,0
2023,11,7,19,60,9,26.2,16.7,56.0,101325,0,0,0,0,0,0,0,0,0,0,0,7.1,0,0,9999,77777,9,999999999,0,0,0,99,0.2,0,0
2023,11,7,20,60,9,26.7,15.9,52.0,101325,0,0,0,0,0,0,0,0,0,0,0,5.3,0,0,9999,77777,9,999999999,0,0,0,99,0.2,0,0
2023,11,7,21,60,9,24.8,17.2,62.0,101325,0,0,0,0,0,0,0,0,0,0,0,6.6,0,0,9999,77777,9,999999999,0,0,0,99,0.2,0,0
2023,11,7,22,60,9,24.4,16.9,63.0,101325,0,0,0,0,0,0,0,0,0,0,0,5.8,0,0,9999,77777,9,999999999,0,0,0,99,0.2,0,0
2023,11,7,23,60,9,24.6,16.4,60.0,101325,0,0,0,0,0,0,0,0,0,0,0,5.5,0,0,9999,77777,9,999999999,0,0,0,99,0.2,0,0
2023,11,7,24,60,9,24.0,17.8,68.0,101325,0,0,0,0,0,0,0,0,0,0,0,5.7,0,0,9999,77777,9,999999999,0,0,0,99,0.2,0,0
2023,11,8,1,60,9,23.7,19.3,76.0,101325,0,0,0,0,0,0,0,0,0,0,0,7.7,0,0,9999,77777,9,999999999,0,0,0,99,0.2,0,0
2023,11,8,2,60,9,25.4,19.4,69.0,101325,0,0,0,0,0,0,0,0,0,0,0,8.4,0,0,9999,77777,9,999999999,0,0,0,99,0.2,0,0
2023,11,8,3,60,9,27.3,22.6,75.0,101325,0,0,0,0,0,0,0,0,0,0,0,19.1,0,0,9999,77777,9,999999999,0,0,0,99,0.2,0,0
2023,11,8,4,60,9,28.3,22.3,70.0,101325,0,0,0,0,0,0,0,0,0,0,0,20.2,0,0,9999,77777,9,999999999,0,0,0,99,0.2,0,0
2023,11,8,5,60,9,29.5,21.9,64.0,101325,0,0,0,0,0,0,0,0,0,0,0,16.5,0,0,9999,77777,9,999999999,0,0,0,99,0.2,0,0
2023,11,8,6,60,9,30.9,21.9,59.0,101325,0,0,0,0,0,0,0,0,0,0,0,11.9,0,0,9999,77777,9,999999999,0,0,0,99,0.2,0,0
2023,11,8,7,60,9,31.5,22.6,59.0,101325,0,0,0,0,0,0,0,0,0,0,0,12.0,0,0,9999,77777,9,999999999,0,0,0,99,0.2,0,0
2023,11,8,8,60,9,32.1,22.5,57.0,101325,0,0,0,0,0,0,0,0,0,0,0,8.7,0,0,9999,77777,9,999999999,0,0,0,99,0.2,0,0
2023,11,8,9,60,9,32.7,22.5,55.0,101325,0,0,0,0,0,0,0,0,0,0,0,7.0,0,0,9999,77777,9,999999999,0,0,0,99,0.2,0,0
2023,11,8,10,60,9,32.2,22.7,57.0,101325,0,0,0,0,0,0,0,0,0,0,0,12.1,0,0,9999,77777,9,999999999,0,0,0,99,0.2,0,0
2023,11,8,11,60,9,30.9,22.8,62.0,101325,0,0,0,0,0,0,0,0,0,0,0,10.7,0,0,9999,77777,9,999999999,0,0,0,99,0.2,0,0
2023,11,8,12,60,9,30.1,23.8,69.0,101325,0,0,0,0,0,0,0,0,0,0,0,12.5,0,0,9999,77777,9,999999999,0,0,0,99,0.2,0,0
2023,11,8,13,60,9,28.8,23.8,74.0,101325,0,0,0,0,0,0,0,0,0,0,0,11.2,0,0,9999,77777,9,999999999,0,0,0,99,0.2,0,0
2023,11,8,14,60,9,28.2,24.2,79.0,101325,0,0,0,0,0,0,0,0,0,0,0,9.8,0,0,9999,77777,9,999999999,0,0,0,99,0.2,0,0
2023,11,8,15,60,9,27.7,24.2,81.0,101325,0,0,0,0,0,0,0,0,0,0,0,5.2,0,0,9999,77777,9,999999999,0,0,0,99,0.2,0,0
2023,11,8,16,60,9,27.1,24.2,84.0,101325,0,0,0,0,0,0,0,0,0,0,0,3.6,0,0,9999,77777,9,999999999,0,0,0,99,0.2,0,0
2023,11,8,17,60,9,26.8,24.5,87.0,101325,0,0,0,0,0,0,0,0,0,0,0,5.0,0,0,9999,77777,9,999999999,0,0,0,99,0.2,0,0
2023,11,8,18,60,9,27.4,23.9,81.0,101325,0,0,0,0,0,0,0,0,0,0,0,1.1,0,0,9999,77777,9,999999999,0,0,0,99,0.2,0,0
2023,11,8,19,60,9,26.0,24.1,89.0,101325,0,0,0,0,0,0,0,0,0,0,0,3.6,0,0,9999,77777,9,999999999,0,0,0,99,0.2,0,0
2023,11,8,20,60,9,26.4,24.0,87.0,101325,0,0,0,0,0,0,0,0,0,0,0,1.8,0,0,9999,77777,9,999999999,0,0,0,99,0.2,0,0
2023,11,8,21,60,9,25.8,24.1,90.0,101325,0,0,0,0,0,0,0,0,0,0,0,2.8,0,0,9999,77777,9,999999999,0,0,0,99,0.2,0,0
2023,11,8,22,60,9,24.9,24.0,95.0,101325,0,0,0,0,0,0,0,0,0,0,0,3.9,0,0,9999,77777,9,999999999,0,0,0,99,0.2,0,0
2023,11,8,23,60,9,25.2,23.9,93.0,101325,0,0,0,0,0,0,0,0,0,0,0,3.1,0,0,9999,77777,9,999999999,0,0,0,99,0.2,0,0
2023,11,8,24,60,9,24.5,23.8,96.0,101325,0,0,0,0,0,0,0,0,0,0,0,3.6,0,0,9999,77777,9,999999999,0,0,0,99,0.2,0,0
2023,11,9,1,60,9,24.0,23.6,97.0,101325,0,0,0,0,0,0,0,0,0,0,0,4.6,0,0,9999,77777,9,999999999,0,0,0,99,0.2,0,0
2023,11,9,2,60,9,24.7,24.1,96.0,101325,0,0,0,0,0,0,0,0,0,0,0,3.4,0,0,9999,77777,9,999999999,0,0,0,99,0.2,0,0
2023,11,9,3,60,9,25.5,24.2,92.0,101325,0,0,0,0,0,0,0,0,0,0,0,5.4,0,0,9999,77777,9,999999999,0,0,0,99,0.2,0,0
2023,11,9,4,60,9,27.6,24.4,83.0,101325,0,0,0,0,0,0,0,0,0,0,0,5.2,0,0,9999,77777,9,999999999,0,0,0,99,0.2,0,0
2023,11,9,5,60,9,30.1,23.7,69.0,101325,0,0,0,0,0,0,0,0,0,0,0,5.9,0,0,9999,77777,9,999999999,0,0,0,99,0.2,0,0
2023,11,9,6,60,9,32.1,21.4,53.0,101325,0,0,0,0,0,0,0,0,0,0,0,6.2,0,0,9999,77777,9,999999999,0,0,0,99,0.2,0,0
2023,11,9,7,60,9,33.0,20.8,49.0,101325,0,0,0,0,0,0,0,0,0,0,0,4.4,0,0,9999,77777,9,999999999,0,0,0,99,0.2,0,0
2023,11,9,8,60,9,33.3,20.8,48.0,101325,0,0,0,0,0,0,0,0,0,0,0,2.5,0,0,9999,77777,9,999999999,0,0,0,99,0.2,0,0
2023,11,9,9,60,9,33.5,21.3,49.0,101325,0,0,0,0,0,0,0,0,0,0,0,5.2,0,0,9999,77777,9,999999999,0,0,0,99,0.2,0,0
2023,11,9,10,60,9,32.6,23.3,58.0,101325,0,0,0,0,0,0,0,0,0,0,0,13.7,0,0,9999,77777,9,999999999,0,0,0,99,0.2,0,0
2023,11,9,11,60,9,31.4,23.3,62.0,101325,0,0,0,0,0,0,0,0,0,0,0,13.2,0,0,9999,77777,9,999999999,0,0,0,99,0.2,0,0
2023,11,9,12,60,9,31.0,23.3,64.0,101325,0,0,0,0,0,0,0,0,0,0,0,12.5,0,0,9999,77777,9,999999999,0,0,0,99,0.2,0,0
2023,11,9,13,60,9,30.0,23.3,67.0,101325,0,0,0,0,0,0,0,0,0,0,0,10.0,0,0,9999,77777,9,999999999,0,0,0,99,0.2,0,0
2023,11,9,14,60,9,28.8,24.7,79.0,101325,0,0,0,0,0,0,0,0,0,0,0,11.1,0,0,9999,77777,9,999999999,0,0,0,99,0.2,0,0
2023,11,9,15,60,9,28.7,24.0,76.0,101325,0,0,0,0,0,0,0,0,0,0,0,9.0,0,0,9999,77777,9,999999999,0,0,0,99,0.2,0,0
2023,11,9,16,60,9,27.8,23.7,78.0,101325,0,0,0,0,0,0,0,0,0,0,0,3.0,0,0,9999,77777,9,999999999,0,0,0,99,0.2,0,0
2023,11,9,17,60,9,27.5,23.9,81.0,101325,0,0,0,0,0,0,0,0,0,0,0,8.6,0,0,9999,77777,9,999999999,0,0,0,99,0.2,0,0
2023,11,9,18,60,9,27.0,24.0,84.0,101325,0,0,0,0,0,0,0,0,0,0,0,3.3,0,0,9999,77777,9,999999999,0,0,0,99,0.2,0,0
2023,11,9,19,60,9,26.9,23.9,84.0,101325,0,0,0,0,0,0,0,0,0,0,0,2.0,0,0,9999,77777,9,999999999,0,0,0,99,0.2,0,0
2023,11,9,20,60,9,26.6,23.8,85.0,101325,0,0,0,0,0,0,0,0,0,0,0,1.8,0,0,9999,77777,9,999999999,0,0,0,99,0.2,0,0
2023,11,9,21,60,9,25.7,23.9,90.0,101325,0,0,0,0,0,0,0,0,0,0,0,2.3,0,0,9999,77777,9,999999999,0,0,0,99,0.2,0,0
2023,11,9,22,60,9,25.5,23.7,90.0,101325,0,0,0,0,0,0,0,0,0,0,0,5.8,0,0,9999,77777,9,999999999,0,0,0,99,0.2,0,0
2023,11,9,23,60,9,24.9,23.0,89.0,101325,0,0,0,0,0,0,0,0,0,0,0,5.8,0,0,9999,77777,9,999999999,0,0,0,99,0.2,0,0
2023,11,9,24,60,9,24.8,21.6,82.0,101325,0,0,0,0,0,0,0,0,0,0,0,6.5,0,0,9999,77777,9,999999999,0,0,0,99,0.2,0,0
2023,11,10,1,60,9,25.2,20.6,76.0,101325,0,0,0,0,0,0,0,0,0,0,0,7.1,0,0,9999,77777,9,999999999,0,0,0,99,0.2,0,0
2023,11,10,2,60,9,25.4,22.9,86.0,101325,0,0,0,0,0,0,0,0,0,0,0,5.3,0,0,9999,77777,9,999999999,0,0,0,99,0.2,0,0
2023,11,10,3,60,9,26.1,23.0,83.0,101325,0,0,0,0,0,0,0,0,0,0,0,7.0,0,0,9999,77777,9,999999999,0,0,0,99,0.2,0,0
2023,11,10,4,60,9,28.0,23.3,75.0,101325,0,0,0,0,0,0,0,0,0,0,0,5.4,0,0,9999,77777,9,999999999,0,0,0,99,0.2,0,0
2023,11,10,5,60,9,30.4,22.5,63.0,101325,0,0,0,0,0,0,0,0,0,0,0,7.4,0,0,9999,77777,9,999999999,0,0,0,99,0.2,0,0
2023,11,10,6,60,9,32.1,21.7,54.0,101325,0,0,0,0,0,0,0,0,0,0,0,9.2,0,0,9999,77777,9,999999999,0,0,0,99,0.2,0,0
2023,11,10,7,60,9,33.0,21.4,50.0,101325,0,0,0,0,0,0,0,0,0,0,0,9.1,0,0,9999,77777,9,999999999,0,0,0,99,0.2,0,0
2023,11,10,8,60,9,31.1,21.4,57.0,101325,0,0,0,0,0,0,0,0,0,0,0,3.5,0,0,9999,77777,9,999999999,0,0,0,99,0.2,0,0
2023,11,10,9,60,9,32.6,21.6,52.0,101325,0,0,0,0,0,0,0,0,0,0,0,8.0,0,0,9999,77777,9,999999999,0,0,0,99,0.2,0,0
2023,11,10,10,60,9,31.7,22.4,58.0,101325,0,0,0,0,0,0,0,0,0,0,0,13.8,0,0,9999,77777,9,999999999,0,0,0,99,0.2,0,0
2023,11,10,11,60,9,31.2,22.3,59.0,101325,0,0,0,0,0,0,0,0,0,0,0,11.5,0,0,9999,77777,9,999999999,0,0,0,99,0.2,0,0
2023,11,10,12,60,9,30.7,22.5,62.0,101325,0,0,0,0,0,0,0,0,0,0,0,11.7,0,0,9999,77777,9,999999999,0,0,0,99,0.2,0,0
2023,11,10,13,60,9,28.9,22.6,69.0,101325,0,0,0,0,0,0,0,0,0,0,0,10.3,0,0,9999,77777,9,999999999,0,0,0,99,0.2,0,0
2023,11,10,14,60,9,29.1,25.0,79.0,101325,0,0,0,0,0,0,0,0,0,0,0,4.7,0,0,9999,77777,9,999999999,0,0,0,99,0.2,0,0
2023,11,10,15,60,9,29.3,22.9,68.0,101325,0,0,0,0,0,0,0,0,0,0,0,11.0,0,0,9999,77777,9,999999999,0,0,0,99,0.2,0,0
2023,11,10,16,60,9,26.8,22.2,76.0,101325,0,0,0,0,0,0,0,0,0,0,0,8.3,0,0,9999,77777,9,999999999,0,0,0,99,0.2,0,0
2023,11,10,17,60,9,26.6,22.2,77.0,101325,0,0,0,0,0,0,0,0,0,0,0,5.4,0,0,9999,77777,9,999999999,0,0,0,99,0.2,0,0
2023,11,10,18,60,9,26.4,22.6,79.0,101325,0,0,0,0,0,0,0,0,0,0,0,5.7,0,0,9999,77777,9,999999999,0,0,0,99,0.2,0,0
2023,11,10,19,60,9,25.7,23.3,86.0,101325,0,0,0,0,0,0,0,0,0,0,0,4.7,0,0,9999,77777,9,999999999,0,0,0,99,0.2,0,0
2023,11,10,20,60,9,25.3,23.1,88.0,101325,0,0,0,0,0,0,0,0,0,0,0,2.5,0,0,9999,77777,9,999999999,0,0,0,99,0.2,0,0
2023,11,10,21,60,9,24.9,23.0,89.0,101325,0,0,0,0,0,0,0,0,0,0,0,4.0,0,0,9999,77777,9,999999999,0,0,0,99,0.2,0,0
2023,11,10,22,60,9,24.4,22.8,91.0,101325,0,0,0,0,0,0,0,0,0,0,0,5.4,0,0,9999,77777,9,999999999,0,0,0,99,0.2,0,0
2023,11,10,23,60,9,24.1,22.3,90.0,101325,0,0,0,0,0,0,0,0,0,0,0,6.1,0,0,9999,77777,9,999999999,0,0,0,99,0.2,0,0
2023,11,10,24,60,9,24.1,21.8,87.0,101325,0,0,0,0,0,0,0,0,0,0,0,7.3,0,0,9999,77777,9,999999999,0,0,0,99,0.2,0,0
2023,11,11,1,60,9,24.0,22.0,88.0,101325,0,0,0,0,0,0,0,0,0,0,0,7.7,0,0,9999,77777,9,999999999,0,0,0,99,0.2,0,0
2023,11,11,2,60,9,24.8,21.9,84.0,101325,0,0,0,0,0,0,0,0,0,0,0,8.4,0,0,9999,77777,9,999999999,0,0,0,99,0.2,0,0
2023,11,11,3,60,9,25.5,22.1,81.0,101325,0,0,0,0,0,0,0,0,0,0,0,10.1,0,0,9999,77777,9,999999999,0,0,0,99,0.2,0,0
2023,11,11,4,60,9,27.6,22.5,74.0,101325,0,0,0,0,0,0,0,0,0,0,0,8.7,0,0,9999,77777,9,999999999,0,0,0,99,0.2,0,0
2023,11,11,5,60,9,30.3,22.4,63.0,101325,0,0,0,0,0,0,0,0,0,0,0,9.0,0,0,9999,77777,9,999999999,0,0,0,99,0.2,0,0
2023,11,11,6,60,9,32.7,21.2,51.0,101325,0,0,0,0,0,0,0,0,0,0,0,9.7,0,0,9999,77777,9,999999999,0,0,0,99,0.2,0,0
2023,11,11,7,60,9,34.1,19.4,42.0,101325,0,0,0,0,0,0,0,0,0,0,0,7.1,0,0,9999,77777,9,999999999,0,0,0,99,0.2,0,0
2023,11,11,8,60,9,34.8,18.5,38.0,101325,0,0,0,0,0,0,0,0,0,0,0,6.4,0,0,9999,77777,9,999999999,0,0,0,99,0.2,0,0
2023,11,11,9,60,9,35.0,18.4,37.0,101325,0,0,0,0,0,0,0,0,0,0,0,5.9,0,0,9999,77777,9,999999999,0,0,0,99,0.2,0,0
2023,11,11,10,60,9,35.0,18.2,37.0,101325,0,0,0,0,0,0,0,0,0,0,0,6.2,0,0,9999,77777,9,999999999,0,0,0,99,0.2,0,0
2023,11,11,11,60,9,34.0,20.8,46.0,101325,0,0,0,0,0,0,0,0,0,0,0,11.4,0,0,9999,77777,9,999999999,0,0,0,99,0.2,0,0
2023,11,11,12,60,9,32.4,22.7,57.0,101325,0,0,0,0,0,0,0,0,0,0,0,16.8,0,0,9999,77777,9,999999999,0,0,0,99,0.2,0,0
2023,11,11,13,60,9,30.8,21.5,58.0,101325,0,0,0,0,0,0,0,0,0,0,0,18.5,0,0,9999,77777,9,999999999,0,0,0,99,0.2,0,0
2023,11,11,14,60,9,30.1,20.1,55.0,101325,0,0,0,0,0,0,0,0,0,0,0,15.3,0,0,9999,77777,9,999999999,0,0,0,99,0.2,0,0
2023,11,11,15,60,9,29.7,21.1,60.0,101325,0,0,0,0,0,0,0,0,0,0,0,14.7,0,0,9999,77777,9,999999999,0,0,0,99,0.2,0,0
2023,11,11,16,60,9,29.4,20.3,58.0,101325,0,0,0,0,0,0,0,0,0,0,0,16.3,0,0,9999,77777,9,999999999,0,0,0,99,0.2,0,0
2023,11,11,17,60,9,29.0,20.0,59.0,101325,0,0,0,0,0,0,0,0,0,0,0,13.4,0,0,9999,77777,9,999999999,0,0,0,99,0.2,0,0
2023,11,11,18,60,9,28.5,19.0,56.0,101325,0,0,0,0,0,0,0,0,0,0,0,11.6,0,0,9999,77777,9,999999999,0,0,0,99,0.2,0,0
2023,11,11,19,60,9,28.1,17.1,51.0,101325,0,0,0,0,0,0,0,0,0,0,0,7.8,0,0,9999,77777,9,999999999,0,0,0,99,0.2,0,0
2023,11,11,20,60,9,26.2,17.2,58.0,101325,0,0,0,0,0,0,0,0,0,0,0,7.9,0,0,9999,77777,9,999999999,0,0,0,99,0.2,0,0
2023,11,11,21,60,9,26.0,16.0,54.0,101325,0,0,0,0,0,0,0,0,0,0,0,6.5,0,0,9999,77777,9,999999999,0,0,0,99,0.2,0,0
2023,11,11,22,60,9,25.9,15.7,53.0,101325,0,0,0,0,0,0,0,0,0,0,0,7.1,0,0,9999,77777,9,999999999,0,0,0,99,0.2,0,0
2023,11,11,23,60,9,25.7,15.8,55.0,101325,0,0,0,0,0,0,0,0,0,0,0,9.2,0,0,9999,77777,9,999999999,0,0,0,99,0.2,0,0
2023,11,11,24,60,9,25.6,15.3,53.0,101325,0,0,0,0,0,0,0,0,0,0,0,9.7,0,0,9999,77777,9,999999999,0,0,0,99,0.2,0,0
2023,11,12,1,60,9,25.3,14.9,53.0,101325,0,0,0,0,0,0,0,0,0,0,0,9.2,0,0,9999,77777,9,999999999,0,0,0,99,0.2,0,0
2023,11,12,2,60,9,26.1,17.1,58.0,101325,0,0,0,0,0,0,0,0,0,0,0,9.8,0,0,9999,77777,9,999999999,0,0,0,99,0.2,0,0
2023,11,12,3,60,9,25.8,18.1,63.0,101325,0,0,0,0,0,0,0,0,0,0,0,10.1,0,0,9999,77777,9,999999999,0,0,0,99,0.2,0,0
2023,11,12,4,60,9,27.9,19.6,61.0,101325,0,0,0,0,0,0,0,0,0,0,0,8.4,0,0,9999,77777,9,999999999,0,0,0,99,0.2,0,0
2023,11,12,5,60,9,30.9,20.5,54.0,101325,0,0,0,0,0,0,0,0,0,0,0,7.4,0,0,9999,77777,9,999999999,0,0,0,99,0.2,0,0
2023,11,12,6,60,9,33.1,20.6,48.0,101325,0,0,0,0,0,0,0,0,0,0,0,8.3,0,0,9999,77777,9,999999999,0,0,0,99,0.2,0,0
2023,11,12,7,60,9,34.2,20.4,45.0,101325,0,0,0,0,0,0,0,0,0,0,0,6.9,0,0,9999,77777,9,999999999,0,0,0,99,0.2,0,0
2023,11,12,8,60,9,34.8,20.5,43.0,101325,0,0,0,0,0,0,0,0,0,0,0,3.6,0,0,9999,77777,9,999999999,0,0,0,99,0.2,0,0
2023,11,12,9,60,9,35.2,19.6,40.0,101325,0,0,0,0,0,0,0,0,0,0,0,0.4,0,0,9999,77777,9,999999999,0,0,0,99,0.2,0,0
2023,11,12,10,60,9,35.1,18.7,38.0,101325,0,0,0,0,0,0,0,0,0,0,0,4.6,0,0,9999,77777,9,999999999,0,0,0,99,0.2,0,0
2023,11,12,11,60,9,33.7,22.0,50.0,101325,0,0,0,0,0,0,0,0,0,0,0,10.2,0,0,9999,77777,9,999999999,0,0,0,99,0.2,0,0
2023,11,12,12,60,9,32.2,23.6,61.0,101325,0,0,0,0,0,0,0,0,0,0,0,14.1,0,0,9999,77777,9,999999999,0,0,0,99,0.2,0,0
2023,11,12,13,60,9,30.8,20.9,56.0,101325,0,0,0,0,0,0,0,0,0,0,0,14.3,0,0,9999,77777,9,999999999,0,0,0,99,0.2,0,0
2023,11,12,14,60,9,29.2,20.3,59.0,101325,0,0,0,0,0,0,0,0,0,0,0,18.8,0,0,9999,77777,9,999999999,0,0,0,99,0.2,0,0
2023,11,12,15,60,9,29.1,19.2,55.0,101325,0,0,0,0,0,0,0,0,0,0,0,18.9,0,0,9999,77777,9,999999999,0,0,0,99,0.2,0,0
2023,11,12,16,60,9,28.8,18.5,54.0,101325,0,0,0,0,0,0,0,0,0,0,0,16.5,0,0,9999,77777,9,999999999,0,0,0,99,0.2,0,0
2023,11,12,17,60,9,28.7,16.0,46.0,101325,0,0,0,0,0,0,0,0,0,0,0,13.8,0,0,9999,77777,9,999999999,0,0,0,99,0.2,0,0
2023,11,12,18,60,9,28.3,15.3,45.0,101325,0,0,0,0,0,0,0,0,0,0,0,14.4,0,0,9999,77777,9,999999999,0,0,0,99,0.2,0,0
2023,11,12,19,60,9,27.6,15.2,47.0,101325,0,0,0,0,0,0,0,0,0,0,0,9.7,0,0,9999,77777,9,999999999,0,0,0,99,0.2,0,0
2023,11,12,20,60,9,26.6,15.1,49.0,101325,0,0,0,0,0,0,0,0,0,0,0,7.8,0,0,9999,77777,9,999999999,0,0,0,99,0.2,0,0
2023,11,12,21,60,9,25.4,15.0,52.0,101325,0,0,0,0,0,0,0,0,0,0,0,7.1,0,0,9999,77777,9,999999999,0,0,0,99,0.2,0,0
2023,11,12,22,60,9,25.2,14.0,50.0,101325,0,0,0,0,0,0,0,0,0,0,0,7.7,0,0,9999,77777,9,999999999,0,0,0,99,0.2,0,0
2023,11,12,23,60,9,24.8,14.0,51.0,101325,0,0,0,0,0,0,0,0,0,0,0,8.4,0,0,9999,77777,9,999999999,0,0,0,99,0.2,0,0
2023,11,12,24,60,9,24.1,14.6,55.0,101325,0,0,0,0,0,0,0,0,0,0,0,7.1,0,0,9999,77777,9,999999999,0,0,0,99,0.2,0,0
2023,11,13,1,60,9,23.6,14.9,58.0,101325,0,0,0,0,0,0,0,0,0,0,0,7.4,0,0,9999,77777,9,999999999,0,0,0,99,0.2,0,0
2023,11,13,2,60,9,23.8,15.4,59.0,101325,0,0,0,0,0,0,0,0,0,0,0,10.1,0,0,9999,77777,9,999999999,0,0,0,99,0.2,0,0
2023,11,13,3,60,9,24.4,15.6,58.0,101325,0,0,0,0,0,0,0,0,0,0,0,10.2,0,0,9999,77777,9,999999999,0,0,0,99,0.2,0,0
2023,11,13,4,60,9,26.4,17.3,58.0,101325,0,0,0,0,0,0,0,0,0,0,0,9.5,0,0,9999,77777,9,999999999,0,0,0,99,0.2,0,0
2023,11,13,5,60,9,29.0,18.2,52.0,101325,0,0,0,0,0,0,0,0,0,0,0,7.1,0,0,9999,77777,9,999999999,0,0,0,99,0.2,0,0
2023,11,13,6,60,9,31.6,18.1,45.0,101325,0,0,0,0,0,0,0,0,0,0,0,5.8,0,0,9999,77777,9,999999999,0,0,0,99,0.2,0,0
2023,11,13,7,60,9,33.2,18.5,42.0,101325,0,0,0,0,0,0,0,0,0,0,0,4.1,0,0,9999,77777,9,999999999,0,0,0,99,0.2,0,0
2023,11,13,8,60,9,34.2,18.6,40.0,101325,0,0,0,0,0,0,0,0,0,0,0,0.8,0,0,9999,77777,9,999999999,0,0,0,99,0.2,0,0
2023,11,13,9,60,9,34.4,18.5,39.0,101325,0,0,0,0,0,0,0,0,0,0,0,5.4,0,0,9999,77777,9,999999999,0,0,0,99,0.2,0,0
2023,11,13,10,60,9,33.7,20.3,45.0,101325,0,0,0,0,0,0,0,0,0,0,0,11.7,0,0,9999,77777,9,999999999,0,0,0,99,0.2,0,0
2023,11,13,11,60,9,32.5,21.2,52.0,101325,0,0,0,0,0,0,0,0,0,0,0,14.6,0,0,9999,77777,9,999999999,0,0,0,99,0.2,0,0
2023,11,13,12,60,9,31.1,21.7,57.0,101325,0,0,0,0,0,0,0,0,0,0,0,14.5,0,0,9999,77777,9,999999999,0,0,0,99,0.2,0,0
2023,11,13,13,60,9,29.7,22.7,66.0,101325,0,0,0,0,0,0,0,0,0,0,0,14.5,0,0,9999,77777,9,999999999,0,0,0,99,0.2,0,0
2023,11,13,14,60,9,28.4,21.5,66.0,101325,0,0,0,0,0,0,0,0,0,0,0,15.0,0,0,9999,77777,9,999999999,0,0,0,99,0.2,0,0
2023,11,13,15,60,9,28.0,22.0,70.0,101325,0,0,0,0,0,0,0,0,0,0,0,16.1,0,0,9999,77777,9,999999999,0,0,0,99,0.2,0,0
2023,11,13,16,60,9,27.9,21.1,66.0,101325,0,0,0,0,0,0,0,0,0,0,0,15.1,0,0,9999,77777,9,999999999,0,0,0,99,0.2,0,0
2023,11,13,17,60,9,26.7,20.1,67.0,101325,0,0,0,0,0,0,0,0,0,0,0,5.2,0,0,9999,77777,9,999999999,0,0,0,99,0.2,0,0
2023,11,13,18,60,9,25.5,20.2,72.0,101325,0,0,0,0,0,0,0,0,0,0,0,4.9,0,0,9999,77777,9,999999999,0,0,0,99,0.2,0,0
2023,11,13,19,60,9,27.0,19.7,65.0,101325,0,0,0,0,0,0,0,0,0,0,0,1.8,0,0,9999,77777,9,999999999,0,0,0,99,0.2,0,0
2023,11,13,20,60,9,24.2,19.4,75.0,101325,0,0,0,0,0,0,0,0,0,0,0,6.2,0,0,9999,77777,9,999999999,0,0,0,99,0.2,0,0
2023,11,13,21,60,9,24.1,18.8,72.0,101325,0,0,0,0,0,0,0,0,0,0,0,6.4,0,0,9999,77777,9,999999999,0,0,0,99,0.2,0,0
2023,11,13,22,60,9,23.3,18.5,74.0,101325,0,0,0,0,0,0,0,0,0,0,0,7.2,0,0,9999,77777,9,999999999,0,0,0,99,0.2,0,0
2023,11,13,23,60,9,22.9,18.3,76.0,101325,0,0,0,0,0,0,0,0,0,0,0,6.5,0,0,9999,77777,9,999999999,0,0,0,99,0.2,0,0
2023,11,13,24,60,9,22.6,18.0,75.0,101325,0,0,0,0,0,0,0,0,0,0,0,5.9,0,0,9999,77777,9,999999999,0,0,0,99,0.2,0,0
2023,11,14,1,60,9,22.0,17.7,76.0,101325,0,0,0,0,0,0,0,0,0,0,0,6.1,0,0,9999,77777,9,999999999,0,0,0,99,0.2,0,0
2023,11,14,2,60,9,22.2,18.0,77.0,101325,0,0,0,0,0,0,0,0,0,0,0,5.8,0,0,9999,77777,9,999999999,0,0,0,99,0.2,0,0
2023,11,14,3,60,9,23.1,18.1,73.0,101325,0,0,0,0,0,0,0,0,0,0,0,7.7,0,0,9999,77777,9,999999999,0,0,0,99,0.2,0,0
2023,11,14,4,60,9,25.9,18.7,65.0,101325,0,0,0,0,0,0,0,0,0,0,0,6.4,0,0,9999,77777,9,999999999,0,0,0,99,0.2,0,0
2023,11,14,5,60,9,29.3,19.5,55.0,101325,0,0,0,0,0,0,0,0,0,0,0,5.7,0,0,9999,77777,9,999999999,0,0,0,99,0.2,0,0
2023,11,14,6,60,9,31.7,18.3,45.0,101325,0,0,0,0,0,0,0,0,0,0,0,5.5,0,0,9999,77777,9,999999999,0,0,0,99,0.2,0,0
2023,11,14,7,60,9,33.0,18.0,41.0,101325,0,0,0,0,0,0,0,0,0,0,0,6.3,0,0,9999,77777,9,999999999,0,0,0,99,0.2,0,0
2023,11,14,8,60,9,33.8,16.8,36.0,101325,0,0,0,0,0,0,0,0,0,0,0,5.7,0,0,9999,77777,9,999999999,0,0,0,99,0.2,0,0
2023,11,14,9,60,9,33.9,16.8,36.0,101325,0,0,0,0,0,0,0,0,0,0,0,7.4,0,0,9999,77777,9,999999999,0,0,0,99,0.2,0,0
2023,11,14,10,60,9,33.5,17.1,38.0,101325,0,0,0,0,0,0,0,0,0,0,0,11.5,0,0,9999,77777,9,999999999,0,0,0,99,0.2,0,0
2023,11,14,11,60,9,32.5,18.2,43.0,101325,0,0,0,0,0,0,0,0,0,0,0,14.8,0,0,9999,77777,9,999999999,0,0,0,99,0.2,0,0
2023,11,14,12,60,9,31.2,19.1,49.0,101325,0,0,0,0,0,0,0,0,0,0,0,14.6,0,0,9999,77777,9,999999999,0,0,0,99,0.2,0,0
2023,11,14,13,60,9,29.4,22.0,64.0,101325,0,0,0,0,0,0,0,0,0,0,0,12.7,0,0,9999,77777,9,999999999,0,0,0,99,0.2,0,0
2023,11,14,14,60,9,28.2,22.4,71.0,101325,0,0,0,0,0,0,0,0,0,0,0,11.5,0,0,9999,77777,9,999999999,0,0,0,99,0.2,0,0
2023,11,14,15,60,9,27.8,22.4,72.0,101325,0,0,0,0,0,0,0,0,0,0,0,11.0,0,0,9999,77777,9,999999999,0,0,0,99,0.2,0,0
2023,11,14,16,60,9,27.3,22.4,75.0,101325,0,0,0,0,0,0,0,0,0,0,0,12.0,0,0,9999,77777,9,999999999,0,0,0,99,0.2,0,0
2023,11,14,17,60,9,26.2,20.8,72.0,101325,0,0,0,0,0,0,0,0,0,0,0,8.3,0,0,9999,77777,9,999999999,0,0,0,99,0.2,0,0
2023,11,14,18,60,9,24.5,20.2,77.0,101325,0,0,0,0,0,0,0,0,0,0,0,6.9,0,0,9999,77777,9,999999999,0,0,0,99,0.2,0,0
2023,11,14,19,60,9,24.0,19.9,78.0,101325,0,0,0,0,0,0,0,0,0,0,0,6.9,0,0,9999,77777,9,999999999,0,0,0,99,0.2,0,0
2023,11,14,20,60,9,25.4,19.1,68.0,101325,0,0,0,0,0,0,0,0,0,0,0,4.4,0,0,9999,77777,9,999999999,0,0,0,99,0.2,0,0
2023,11,14,21,60,9,23.6,19.1,76.0,101325,0,0,0,0,0,0,0,0,0,0,0,5.4,0,0,9999,77777,9,999999999,0,0,0,99,0.2,0,0
2023,11,14,22,60,9,22.5,19.0,80.0,101325,0,0,0,0,0,0,0,0,0,0,0,6.2,0,0,9999,77777,9,999999999,0,0,0,99,0.2,0,0
2023,11,14,23,60,9,22.9,18.8,78.0,101325,0,0,0,0,0,0,0,0,0,0,0,5.2,0,0,9999,77777,9,999999999,0,0,0,99,0.2,0,0
2023,11,14,24,60,9,21.9,19.2,85.0,101325,0,0,0,0,0,0,0,0,0,0,0,6.9,0,0,9999,77777,9,999999999,0,0,0,99,0.2,0,0
2023,11,15,1,60,9,21.4,19.3,88.0,101325,0,0,0,0,0,0,0,0,0,0,0,5.5,0,0,9999,77777,9,999999999,0,0,0,99,0.2,0,0
2023,11,15,2,60,9,21.6,19.1,86.0,101325,0,0,0,0,0,0,0,0,0,0,0,3.9,0,0,9999,77777,9,999999999,0,0,0,99,0.2,0,0
2023,11,15,3,60,9,22.9,19.1,79.0,101325,0,0,0,0,0,0,0,0,0,0,0,6.6,0,0,9999,77777,9,999999999,0,0,0,99,0.2,0,0
2023,11,15,4,60,9,25.4,19.8,71.0,101325,0,0,0,0,0,0,0,0,0,0,0,8.8,0,0,9999,77777,9,999999999,0,0,0,99,0.2,0,0
2023,11,15,5,60,9,28.6,19.2,57.0,101325,0,0,0,0,0,0,0,0,0,0,0,6.6,0,0,9999,77777,9,999999999,0,0,0,99,0.2,0,0
2023,11,15,6,60,9,31.5,16.6,41.0,101325,0,0,0,0,0,0,0,0,0,0,0,8.3,0,0,9999,77777,9,999999999,0,0,0,99,0.2,0,0
2023,11,15,7,60,9,33.1,14.7,33.0,101325,0,0,0,0,0,0,0,0,0,0,0,8.5,0,0,9999,77777,9,999999999,0,0,0,99,0.2,0,0
2023,11,15,8,60,9,33.8,13.7,30.0,101325,0,0,0,0,0,0,0,0,0,0,0,5.1,0,0,9999,77777,9,999999999,0,0,0,99,0.2,0,0
2023,11,15,9,60,9,33.9,13.0,28.0,101325,0,0,0,0,0,0,0,0,0,0,0,2.4,0,0,9999,77777,9,999999999,0,0,0,99,0.2,0,0
2023,11,15,10,60,9,32.9,17.3,39.0,101325,0,0,0,0,0,0,0,0,0,0,0,11.9,0,0,9999,77777,9,999999999,0,0,0,99,0.2,0,0
2023,11,15,11,60,9,31.7,19.3,48.0,101325,0,0,0,0,0,0,0,0,0,0,0,15.6,0,0,9999,77777,9,999999999,0,0,0,99,0.2,0,0
2023,11,15,12,60,9,30.7,19.2,50.0,101325,0,0,0,0,0,0,0,0,0,0,0,14.7,0,0,9999,77777,9,999999999,0,0,0,99,0.2,0,0
2023,11,15,13,60,9,29.3,20.9,61.0,101325,0,0,0,0,0,0,0,0,0,0,0,13.0,0,0,9999,77777,9,999999999,0,0,0,99,0.2,0,0
2023,11,15,14,60,9,27.8,21.3,68.0,101325,0,0,0,0,0,0,0,0,0,0,0,13.7,0,0,9999,77777,9,999999999,0,0,0,99,0.2,0,0
2023,11,15,15,60,9,27.3,22.0,73.0,101325,0,0,0,0,0,0,0,0,0,0,0,15.3,0,0,9999,77777,9,999999999,0,0,0,99,0.2,0,0
2023,11,15,16,60,9,27.1,21.8,73.0,101325,0,0,0,0,0,0,0,0,0,0,0,14.8,0,0,9999,77777,9,999999999,0,0,0,99,0.2,0,0
2023,11,15,17,60,9,26.5,19.8,67.0,101325,0,0,0,0,0,0,0,0,0,0,0,9.0,0,0,9999,77777,9,999999999,0,0,0,99,0.2,0,0
2023,11,15,18,60,9,24.6,19.1,71.0,101325,0,0,0,0,0,0,0,0,0,0,0,5.1,0,0,9999,77777,9,999999999,0,0,0,99,0.2,0,0
2023,11,15,19,60,9,23.5,19.6,79.0,101325,0,0,0,0,0,0,0,0,0,0,0,7.5,0,0,9999,77777,9,999999999,0,0,0,99,0.2,0,0
2023,11,15,20,60,9,23.5,18.9,75.0,101325,0,0,0,0,0,0,0,0,0,0,0,6.2,0,0,9999,77777,9,999999999,0,0,0,99,0.2,0,0
2023,11,15,21,60,9,22.8,18.9,78.0,101325,0,0,0,0,0,0,0,0,0,0,0,5.8,0,0,9999,77777,9,999999999,0,0,0,99,0.2,0,0
2023,11,15,22,60,9,23.0,18.8,77.0,101325,0,0,0,0,0,0,0,0,0,0,0,5.1,0,0,9999,77777,9,999999999,0,0,0,99,0.2,0,0
2023,11,15,23,60,9,23.7,18.4,72.0,101325,0,0,0,0,0,0,0,0,0,0,0,3.2,0,0,9999,77777,9,999999999,0,0,0,99,0.2,0,0
2023,11,15,24,60,9,22.2,18.3,79.0,101325,0,0,0,0,0,0,0,0,0,0,0,4.3,0,0,9999,77777,9,999999999,0,0,0,99,0.2,0,0
2023,11,16,1,60,9,20.8,18.3,86.0,101325,0,0,0,0,0,0,0,0,0,0,0,6.0,0,0,9999,77777,9,999999999,0,0,0,99,0.2,0,0
2023,11,16,2,60,9,21.4,17.8,80.0,101325,0,0,0,0,0,0,0,0,0,0,0,5.6,0,0,9999,77777,9,999999999,0,0,0,99,0.2,0,0
2023,11,16,3,60,9,21.9,17.7,77.0,101325,0,0,0,0,0,0,0,0,0,0,0,6.3,0,0,9999,77777,9,999999999,0,0,0,99,0.2,0,0
2023,11,16,4,60,9,24.5,18.1,68.0,101325,0,0,0,0,0,0,0,0,0,0,0,5.6,0,0,9999,77777,9,999999999,0,0,0,99,0.2,0,0
2023,11,16,5,60,9,27.8,17.4,53.0,101325,0,0,0,0,0,0,0,0,0,0,0,5.7,0,0,9999,77777,9,999999999,0,0,0,99,0.2,0,0
2023,11,16,6,60,9,30.5,16.2,42.0,101325,0,0,0,0,0,0,0,0,0,0,0,6.5,0,0,9999,77777,9,999999999,0,0,0,99,0.2,0,0
2023,11,16,7,60,9,32.3,16.0,37.0,101325,0,0,0,0,0,0,0,0,0,0,0,6.6,0,0,9999,77777,9,999999999,0,0,0,99,0.2,0,0
2023,11,16,8,60,9,33.7,13.8,30.0,101325,0,0,0,0,0,0,0,0,0,0,0,5.1,0,0,9999,77777,9,999999999,0,0,0,99,0.2,0,0
2023,11,16,9,60,9,34.0,12.7,27.0,101325,0,0,0,0,0,0,0,0,0,0,0,1.8,0,0,9999,77777,9,999999999,0,0,0,99,0.2,0,0
2023,11,16,10,60,9,33.7,13.9,30.0,101325,0,0,0,0,0,0,0,0,0,0,0,8.0,0,0,9999,77777,9,999999999,0,0,0,99,0.2,0,0
2023,11,16,11,60,9,32.4,18.4,43.0,101325,0,0,0,0,0,0,0,0,0,0,0,12.4,0,0,9999,77777,9,999999999,0,0,0,99,0.2,0,0
2023,11,16,12,60,9,31.3,19.1,48.0,101325,0,0,0,0,0,0,0,0,0,0,0,11.9,0,0,9999,77777,9,999999999,0,0,0,99,0.2,0,0
2023,11,16,13,60,9,29.6,20.3,57.0,101325,0,0,0,0,0,0,0,0,0,0,0,11.1,0,0,9999,77777,9,999999999,0,0,0,99,0.2,0,0
2023,11,16,14,60,9,27.7,21.1,67.0,101325,0,0,0,0,0,0,0,0,0,0,0,13.4,0,0,9999,77777,9,999999999,0,0,0,99,0.2,0,0
2023,11,16,15,60,9,27.3,21.1,69.0,101325,0,0,0,0,0,0,0,0,0,0,0,14.2,0,0,9999,77777,9,999999999,0,0,0,99,0.2,0,0
2023,11,16,16,60,9,26.9,20.6,69.0,101325,0,0,0,0,0,0,0,0,0,0,0,15.6,0,0,9999,77777,9,999999999,0,0,0,99,0.2,0,0
2023,11,16,17,60,9,26.3,20.3,70.0,101325,0,0,0,0,0,0,0,0,0,0,0,13.5,0,0,9999,77777,9,999999999,0,0,0,99,0.2,0,0
2023,11,16,18,60,9,26.0,19.5,68.0,101325,0,0,0,0,0,0,0,0,0,0,0,12.6,0,0,9999,77777,9,999999999,0,0,0,99,0.2,0,0
2023,11,16,19,60,9,25.5,18.9,67.0,101325,0,0,0,0,0,0,0,0,0,0,0,11.2,0,0,9999,77777,9,999999999,0,0,0,99,0.2,0,0
2023,11,16,20,60,9,24.5,18.4,69.0,101325,0,0,0,0,0,0,0,0,0,0,0,6.2,0,0,9999,77777,9,999999999,0,0,0,99,0.2,0,0
2023,11,16,21,60,9,23.8,18.4,72.0,101325,0,0,0,0,0,0,0,0,0,0,0,6.4,0,0,9999,77777,9,999999999,0,0,0,99,0.2,0,0
2023,11,16,22,60,9,22.7,18.5,77.0,101325,0,0,0,0,0,0,0,0,0,0,0,7.2,0,0,9999,77777,9,999999999,0,0,0,99,0.2,0,0
2023,11,16,23,60,9,22.0,18.1,79.0,101325,0,0,0,0,0,0,0,0,0,0,0,6.9,0,0,9999,77777,9,999999999,0,0,0,99,0.2,0,0
2023,11,16,24,60,9,21.7,17.8,78.0,101325,0,0,0,0,0,0,0,0,0,0,0,5.3,0,0,9999,77777,9,999999999,0,0,0,99,0.2,0,0
2023,11,17,1,60,9,21.6,17.4,77.0,101325,0,0,0,0,0,0,0,0,0,0,0,6.3,0,0,9999,77777,9,999999999,0,0,0,99,0.2,0,0
2023,11,17,2,60,9,21.5,16.3,72.0,101325,0,0,0,0,0,0,0,0,0,0,0,7.1,0,0,9999,77777,9,999999999,0,0,0,99,0.2,0,0
2023,11,17,3,60,9,22.1,16.2,69.0,101325,0,0,0,0,0,0,0,0,0,0,0,9.9,0,0,9999,77777,9,999999999,0,0,0,99,0.2,0,0
2023,11,17,4,60,9,24.8,17.0,62.0,101325,0,0,0,0,0,0,0,0,0,0,0,11.6,0,0,9999,77777,9,999999999,0,0,0,99,0.2,0,0
2023,11,17,5,60,9,28.2,17.0,51.0,101325,0,0,0,0,0,0,0,0,0,0,0,10.0,0,0,9999,77777,9,999999999,0,0,0,99,0.2,0,0
2023,11,17,6,60,9,30.7,16.8,43.0,101325,0,0,0,0,0,0,0,0,0,0,0,11.6,0,0,9999,77777,9,999999999,0,0,0,99,0.2,0,0
2023,11,17,7,60,9,32.5,15.8,37.0,101325,0,0,0,0,0,0,0,0,0,0,0,11.5,0,0,9999,77777,9,999999999,0,0,0,99,0.2,0,0
2023,11,17,8,60,9,33.5,14.4,32.0,101325,0,0,0,0,0,0,0,0,0,0,0,6.9,0,0,9999,77777,9,999999999,0,0,0,99,0.2,0,0
2023,11,17,9,60,9,33.7,13.8,30.0,101325,0,0,0,0,0,0,0,0,0,0,0,2.9,0,0,9999,77777,9,999999999,0,0,0,99,0.2,0,0
2023,11,17,10,60,9,33.5,14.1,31.0,101325,0,0,0,0,0,0,0,0,0,0,0,5.2,0,0,9999,77777,9,999999999,0,0,0,99,0.2,0,0
2023,11,17,11,60,9,32.8,15.9,36.0,101325,0,0,0,0,0,0,0,0,0,0,0,9.3,0,0,9999,77777,9,999999999,0,0,0,99,0.2,0,0
2023,11,17,12,60,9,31.2,19.3,49.0,101325,0,0,0,0,0,0,0,0,0,0,0,11.7,0,0,9999,77777,9,999999999,0,0,0,99,0.2,0,0
2023,11,17,13,60,9,29.0,21.2,63.0,101325,0,0,0,0,0,0,0,0,0,0,0,15.5,0,0,9999,77777,9,999999999,0,0,0,99,0.2,0,0
2023,11,17,14,60,9,27.7,21.3,68.0,101325,0,0,0,0,0,0,0,0,0,0,0,17.6,0,0,9999,77777,9,999999999,0,0,0,99,0.2,0,0
2023,11,17,15,60,9,27.3,21.6,71.0,101325,0,0,0,0,0,0,0,0,0,0,0,17.2,0,0,9999,77777,9,999999999,0,0,0,99,0.2,0,0
2023,11,17,16,60,9,27.0,21.6,73.0,101325,0,0,0,0,0,0,0,0,0,0,0,17.4,0,0,9999,77777,9,999999999,0,0,0,99,0.2,0,0
2023,11,17,17,60,9,26.9,20.0,66.0,101325,0,0,0,0,0,0,0,0,0,0,0,16.6,0,0,9999,77777,9,999999999,0,0,0,99,0.2,0,0
2023,11,17,18,60,9,26.2,18.6,63.0,101325,0,0,0,0,0,0,0,0,0,0,0,13.0,0,0,9999,77777,9,999999999,0,0,0,99,0.2,0,0
2023,11,17,19,60,9,25.2,17.5,63.0,101325,0,0,0,0,0,0,0,0,0,0,0,6.2,0,0,9999,77777,9,999999999,0,0,0,99,0.2,0,0
2023,11,17,20,60,9,24.1,17.7,67.0,101325,0,0,0,0,0,0,0,0,0,0,0,5.9,0,0,9999,77777,9,999999999,0,0,0,99,0.2,0,0
2023,11,17,21,60,9,24.2,17.7,67.0,101325,0,0,0,0,0,0,0,0,0,0,0,5.0,0,0,9999,77777,9,999999999,0,0,0,99,0.2,0,0
2023,11,17,22,60,9,22.4,18.0,76.0,101325,0,0,0,0,0,0,0,0,0,0,0,7.2,0,0,9999,77777,9,999999999,0,0,0,99,0.2,0,0
2023,11,17,23,60,9,22.8,17.7,73.0,101325,0,0,0,0,0,0,0,0,0,0,0,5.2,0,0,9999,77777,9,999999999,0,0,0,99,0.2,0,0
2023,11,17,24,60,9,21.3,17.4,78.0,101325,0,0,0,0,0,0,0,0,0,0,0,5.6,0,0,9999,77777,9,999999999,0,0,0,99,0.2,0,0
2023,11,18,1,60,9,21.2,16.9,77.0,101325,0,0,0,0,0,0,0,0,0,0,0,6.1,0,0,9999,77777,9,999999999,0,0,0,99,0.2,0,0
2023,11,18,2,60,9,21.3,16.9,76.0,101325,0,0,0,0,0,0,0,0,0,0,0,6.4,0,0,9999,77777,9,999999999,0,0,0,99,0.2,0,0
2023,11,18,3,60,9,21.8,16.8,73.0,101325,0,0,0,0,0,0,0,0,0,0,0,8.8,0,0,9999,77777,9,999999999,0,0,0,99,0.2,0,0
2023,11,18,4,60,9,24.3,17.4,65.0,101325,0,0,0,0,0,0,0,0,0,0,0,8.3,0,0,9999,77777,9,999999999,0,0,0,99,0.2,0,0
2023,11,18,5,60,9,27.6,17.0,53.0,101325,0,0,0,0,0,0,0,0,0,0,0,7.1,0,0,9999,77777,9,999999999,0,0,0,99,0.2,0,0
2023,11,18,6,60,9,30.7,16.2,42.0,101325,0,0,0,0,0,0,0,0,0,0,0,7.4,0,0,9999,77777,9,999999999,0,0,0,99,0.2,0,0
2023,11,18,7,60,9,32.5,15.8,37.0,101325,0,0,0,0,0,0,0,0,0,0,0,6.6,0,0,9999,77777,9,999999999,0,0,0,99,0.2,0,0
2023,11,18,8,60,9,33.6,14.5,32.0,101325,0,0,0,0,0,0,0,0,0,0,0,2.9,0,0,9999,77777,9,999999999,0,0,0,99,0.2,0,0
2023,11,18,9,60,9,33.7,14.4,31.0,101325,0,0,0,0,0,0,0,0,0,0,0,4.8,0,0,9999,77777,9,999999999,0,0,0,99,0.2,0,0
2023,11,18,10,60,9,33.1,16.3,37.0,101325,0,0,0,0,0,0,0,0,0,0,0,11.0,0,0,9999,77777,9,999999999,0,0,0,99,0.2,0,0
2023,11,18,11,60,9,31.6,19.5,49.0,101325,0,0,0,0,0,0,0,0,0,0,0,13.3,0,0,9999,77777,9,999999999,0,0,0,99,0.2,0,0
2023,11,18,12,60,9,30.3,19.8,53.0,101325,0,0,0,0,0,0,0,0,0,0,0,13.8,0,0,9999,77777,9,999999999,0,0,0,99,0.2,0,0
2023,11,18,13,60,9,29.1,20.2,59.0,101325,0,0,0,0,0,0,0,0,0,0,0,12.5,0,0,9999,77777,9,999999999,0,0,0,99,0.2,0,0
2023,11,18,14,60,9,27.4,21.2,69.0,101325,0,0,0,0,0,0,0,0,0,0,0,11.6,0,0,9999,77777,9,999999999,0,0,0,99,0.2,0,0
2023,11,18,15,60,9,26.9,21.7,73.0,101325,0,0,0,0,0,0,0,0,0,0,0,11.5,0,0,9999,77777,9,999999999,0,0,0,99,0.2,0,0
2023,11,18,16,60,9,26.6,22.1,77.0,101325,0,0,0,0,0,0,0,0,0,0,0,11.3,0,0,9999,77777,9,999999999,0,0,0,99,0.2,0,0
2023,11,18,17,60,9,26.0,22.1,79.0,101325,0,0,0,0,0,0,0,0,0,0,0,10.8,0,0,9999,77777,9,999999999,0,0,0,99,0.2,0,0
2023,11,18,18,60,9,25.2,20.6,76.0,101325,0,0,0,0,0,0,0,0,0,0,0,7.3,0,0,9999,77777,9,999999999,0,0,0,99,0.2,0,0
2023,11,18,19,60,9,23.1,19.3,79.0,101325,0,0,0,0,0,0,0,0,0,0,0,8.0,0,0,9999,77777,9,999999999,0,0,0,99,0.2,0,0
2023,11,18,20,60,9,22.7,19.1,80.0,101325,0,0,0,0,0,0,0,0,0,0,0,6.6,0,0,9999,77777,9,999999999,0,0,0,99,0.2,0,0
2023,11,18,21,60,9,23.4,18.8,75.0,101325,0,0,0,0,0,0,0,0,0,0,0,5.1,0,0,9999,77777,9,999999999,0,0,0,99,0.2,0,0
2023,11,18,22,60,9,22.2,18.7,81.0,101325,0,0,0,0,0,0,0,0,0,0,0,5.8,0,0,9999,77777,9,999999999,0,0,0,99,0.2,0,0
2023,11,18,23,60,9,23.0,18.4,75.0,101325,0,0,0,0,0,0,0,0,0,0,0,4.0,0,0,9999,77777,9,999999999,0,0,0,99,0.2,0,0
2023,11,18,24,60,9,21.3,18.2,83.0,101325,0,0,0,0,0,0,0,0,0,0,0,5.9,0,0,9999,77777,9,999999999,0,0,0,99,0.2,0,0
2023,11,19,1,60,9,20.8,17.9,84.0,101325,0,0,0,0,0,0,0,0,0,0,0,7.6,0,0,9999,77777,9,999999999,0,0,0,99,0.2,0,0
2023,11,19,2,60,9,22.1,17.7,76.0,101325,0,0,0,0,0,0,0,0,0,0,0,5.3,0,0,9999,77777,9,999999999,0,0,0,99,0.2,0,0
2023,11,19,3,60,9,22.7,17.5,72.0,101325,0,0,0,0,0,0,0,0,0,0,0,8.8,0,0,9999,77777,9,999999999,0,0,0,99,0.2,0,0
2023,11,19,4,60,9,25.4,18.1,64.0,101325,0,0,0,0,0,0,0,0,0,0,0,7.8,0,0,9999,77777,9,999999999,0,0,0,99,0.2,0,0
2023,11,19,5,60,9,28.8,18.5,54.0,101325,0,0,0,0,0,0,0,0,0,0,0,5.6,0,0,9999,77777,9,999999999,0,0,0,99,0.2,0,0
2023,11,19,6,60,9,31.3,18.5,47.0,101325,0,0,0,0,0,0,0,0,0,0,0,2.9,0,0,9999,77777,9,999999999,0,0,0,99,0.2,0,0
2023,11,19,7,60,9,32.1,19.2,47.0,101325,0,0,0,0,0,0,0,0,0,0,0,6.8,0,0,9999,77777,9,999999999,0,0,0,99,0.2,0,0
2023,11,19,8,60,9,32.1,20.4,50.0,101325,0,0,0,0,0,0,0,0,0,0,0,11.3,0,0,9999,77777,9,999999999,0,0,0,99,0.2,0,0
2023,11,19,9,60,9,32.3,19.8,48.0,101325,0,0,0,0,0,0,0,0,0,0,0,12.9,0,0,9999,77777,9,999999999,0,0,0,99,0.2,0,0
2023,11,19,10,60,9,32.2,19.1,46.0,101325,0,0,0,0,0,0,0,0,0,0,0,14.9,0,0,9999,77777,9,999999999,0,0,0,99,0.2,0,0
2023,11,19,11,60,9,31.6,19.1,48.0,101325,0,0,0,0,0,0,0,0,0,0,0,14.1,0,0,9999,77777,9,999999999,0,0,0,99,0.2,0,0
2023,11,19,12,60,9,30.7,20.1,53.0,101325,0,0,0,0,0,0,0,0,0,0,0,14.8,0,0,9999,77777,9,999999999,0,0,0,99,0.2,0,0
2023,11,19,13,60,9,29.2,21.1,62.0,101325,0,0,0,0,0,0,0,0,0,0,0,14.6,0,0,9999,77777,9,999999999,0,0,0,99,0.2,0,0
2023,11,19,14,60,9,28.1,20.5,64.0,101325,0,0,0,0,0,0,0,0,0,0,0,17.2,0,0,9999,77777,9,999999999,0,0,0,99,0.2,0,0
2023,11,19,15,60,9,28.0,20.5,64.0,101325,0,0,0,0,0,0,0,0,0,0,0,17.5,0,0,9999,77777,9,999999999,0,0,0,99,0.2,0,0
2023,11,19,16,60,9,27.7,20.4,64.0,101325,0,0,0,0,0,0,0,0,0,0,0,14.4,0,0,9999,77777,9,999999999,0,0,0,99,0.2,0,0
2023,11,19,17,60,9,26.9,19.9,65.0,101325,0,0,0,0,0,0,0,0,0,0,0,10.0,0,0,9999,77777,9,999999999,0,0,0,99,0.2,0,0
2023,11,19,18,60,9,25.9,17.6,60.0,101325,0,0,0,0,0,0,0,0,0,0,0,7.4,0,0,9999,77777,9,999999999,0,0,0,99,0.2,0,0
2023,11,19,19,60,9,25.3,17.0,60.0,101325,0,0,0,0,0,0,0,0,0,0,0,7.4,0,0,9999,77777,9,999999999,0,0,0,99,0.2,0,0
2023,11,19,20,60,9,25.0,16.8,60.0,101325,0,0,0,0,0,0,0,0,0,0,0,7.5,0,0,9999,77777,9,999999999,0,0,0,99,0.2,0,0
2023,11,19,21,60,9,24.4,16.5,61.0,101325,0,0,0,0,0,0,0,0,0,0,0,6.8,0,0,9999,77777,9,999999999,0,0,0,99,0.2,0,0
2023,11,19,22,60,9,23.7,16.9,66.0,101325,0,0,0,0,0,0,0,0,0,0,0,9.5,0,0,9999,77777,9,999999999,0,0,0,99,0.2,0,0
2023,11,19,23,60,9,23.6,16.7,65.0,101325,0,0,0,0,0,0,0,0,0,0,0,8.4,0,0,9999,77777,9,999999999,0,0,0,99,0.2,0,0
2023,11,19,24,60,9,23.5,16.1,63.0,101325,0,0,0,0,0,0,0,0,0,0,0,7.3,0,0,9999,77777,9,999999999,0,0,0,99,0.2,0,0
2023,11,20,1,60,9,24.0,15.8,60.0,101325,0,0,0,0,0,0,0,0,0,0,0,6.9,0,0,9999,77777,9,999999999,0,0,0,99,0.2,0,0
2023,11,20,2,60,9,23.9,16.6,64.0,101325,0,0,0,0,0,0,0,0,0,0,0,6.4,0,0,9999,77777,9,999999999,0,0,0,99,0.2,0,0
2023,11,20,3,60,9,24.3,17.2,65.0,101325,0,0,0,0,0,0,0,0,0,0,0,9.0,0,0,9999,77777,9,999999999,0,0,0,99,0.2,0,0
2023,11,20,4,60,9,26.7,18.8,62.0,101325,0,0,0,0,0,0,0,0,0,0,0,7.1,0,0,9999,77777,9,999999999,0,0,0,99,0.2,0,0
2023,11,20,5,60,9,29.6,19.4,54.0,101325,0,0,0,0,0,0,0,0,0,0,0,4.3,0,0,9999,77777,9,999999999,0,0,0,99,0.2,0,0
2023,11,20,6,60,9,31.7,19.7,49.0,101325,0,0,0,0,0,0,0,0,0,0,0,4.1,0,0,9999,77777,9,999999999,0,0,0,99,0.2,0,0
2023,11,20,7,60,9,33.4,19.0,43.0,101325,0,0,0,0,0,0,0,0,0,0,0,2.6,0,0,9999,77777,9,999999999,0,0,0,99,0.2,0,0
2023,11,20,8,60,9,34.2,18.0,38.0,101325,0,0,0,0,0,0,0,0,0,0,0,1.1,0,0,9999,77777,9,999999999,0,0,0,99,0.2,0,0
2023,11,20,9,60,9,33.8,19.7,44.0,101325,0,0,0,0,0,0,0,0,0,0,0,8.4,0,0,9999,77777,9,999999999,0,0,0,99,0.2,0,0
2023,11,20,10,60,9,32.9,21.8,52.0,101325,0,0,0,0,0,0,0,0,0,0,0,12.3,0,0,9999,77777,9,999999999,0,0,0,99,0.2,0,0
2023,11,20,11,60,9,32.2,22.0,55.0,101325,0,0,0,0,0,0,0,0,0,0,0,14.7,0,0,9999,77777,9,999999999,0,0,0,99,0.2,0,0
2023,11,20,12,60,9,31.0,21.8,58.0,101325,0,0,0,0,0,0,0,0,0,0,0,15.5,0,0,9999,77777,9,999999999,0,0,0,99,0.2,0,0
2023,11,20,13,60,9,29.7,22.0,63.0,101325,0,0,0,0,0,0,0,0,0,0,0,12.8,0,0,9999,77777,9,999999999,0,0,0,99,0.2,0,0
2023,11,20,14,60,9,28.3,22.4,70.0,101325,0,0,0,0,0,0,0,0,0,0,0,15.9,0,0,9999,77777,9,999999999,0,0,0,99,0.2,0,0
2023,11,20,15,60,9,28.1,22.9,74.0,101325,0,0,0,0,0,0,0,0,0,0,0,16.0,0,0,9999,77777,9,999999999,0,0,0,99,0.2,0,0
2023,11,20,16,60,9,27.6,22.5,74.0,101325,0,0,0,0,0,0,0,0,0,0,0,9.1,0,0,9999,77777,9,999999999,0,0,0,99,0.2,0,0
2023,11,20,17,60,9,27.3,22.6,76.0,101325,0,0,0,0,0,0,0,0,0,0,0,5.0,0,0,9999,77777,9,999999999,0,0,0,99,0.2,0,0
2023,11,20,18,60,9,26.4,22.3,78.0,101325,0,0,0,0,0,0,0,0,0,0,0,5.1,0,0,9999,77777,9,999999999,0,0,0,99,0.2,0,0
2023,11,20,19,60,9,27.3,21.3,70.0,101325,0,0,0,0,0,0,0,0,0,0,0,3.7,0,0,9999,77777,9,999999999,0,0,0,99,0.2,0,0
2023,11,20,20,60,9,25.8,20.9,74.0,101325,0,0,0,0,0,0,0,0,0,0,0,5.7,0,0,9999,77777,9,999999999,0,0,0,99,0.2,0,0
2023,11,20,21,60,9,26.6,20.2,68.0,101325,0,0,0,0,0,0,0,0,0,0,0,8.8,0,0,9999,77777,9,999999999,0,0,0,99,0.2,0,0
2023,11,20,22,60,9,25.8,20.5,72.0,101325,0,0,0,0,0,0,0,0,0,0,0,4.1,0,0,9999,77777,9,999999999,0,0,0,99,0.2,0,0
2023,11,20,23,60,9,26.0,20.1,70.0,101325,0,0,0,0,0,0,0,0,0,0,0,3.1,0,0,9999,77777,9,999999999,0,0,0,99,0.2,0,0
2023,11,20,24,60,9,25.2,19.8,72.0,101325,0,0,0,0,0,0,0,0,0,0,0,5.0,0,0,9999,77777,9,999999999,0,0,0,99,0.2,0,0
2023,11,21,1,60,9,25.0,19.6,72.0,101325,0,0,0,0,0,0,0,0,0,0,0,6.5,0,0,9999,77777,9,999999999,0,0,0,99,0.2,0,0
2023,11,21,2,60,9,24.3,20.5,80.0,101325,0,0,0,0,0,0,0,0,0,0,0,7.4,0,0,9999,77777,9,999999999,0,0,0,99,0.2,0,0
2023,11,21,3,60,9,24.8,20.3,76.0,101325,0,0,0,0,0,0,0,0,0,0,0,9.8,0,0,9999,77777,9,999999999,0,0,0,99,0.2,0,0
2023,11,21,4,60,9,26.9,20.7,69.0,101325,0,0,0,0,0,0,0,0,0,0,0,9.6,0,0,9999,77777,9,999999999,0,0,0,99,0.2,0,0
2023,11,21,5,60,9,29.9,19.5,54.0,101325,0,0,0,0,0,0,0,0,0,0,0,8.4,0,0,9999,77777,9,999999999,0,0,0,99,0.2,0,0
2023,11,21,6,60,9,31.8,17.9,44.0,101325,0,0,0,0,0,0,0,0,0,0,0,10.4,0,0,9999,77777,9,999999999,0,0,0,99,0.2,0,0
2023,11,21,7,60,9,33.3,17.3,39.0,101325,0,0,0,0,0,0,0,0,0,0,0,10.1,0,0,9999,77777,9,999999999,0,0,0,99,0.2,0,0
2023,11,21,8,60,9,34.1,16.4,35.0,101325,0,0,0,0,0,0,0,0,0,0,0,4.4,0,0,9999,77777,9,999999999,0,0,0,99,0.2,0,0
2023,11,21,9,60,9,34.2,16.2,34.0,101325,0,0,0,0,0,0,0,0,0,0,0,6.1,0,0,9999,77777,9,999999999,0,0,0,99,0.2,0,0
2023,11,21,10,60,9,33.3,19.0,43.0,101325,0,0,0,0,0,0,0,0,0,0,0,10.0,0,0,9999,77777,9,999999999,0,0,0,99,0.2,0,0
2023,11,21,11,60,9,32.8,20.1,47.0,101325,0,0,0,0,0,0,0,0,0,0,0,11.6,0,0,9999,77777,9,999999999,0,0,0,99,0.2,0,0
2023,11,21,12,60,9,30.4,21.2,58.0,101325,0,0,0,0,0,0,0,0,0,0,0,20.2,0,0,9999,77777,9,999999999,0,0,0,99,0.2,0,0
2023,11,21,13,60,9,29.7,21.5,61.0,101325,0,0,0,0,0,0,0,0,0,0,0,16.7,0,0,9999,77777,9,999999999,0,0,0,99,0.2,0,0
2023,11,21,14,60,9,28.4,22.4,70.0,101325,0,0,0,0,0,0,0,0,0,0,0,13.5,0,0,9999,77777,9,999999999,0,0,0,99,0.2,0,0
2023,11,21,15,60,9,28.1,21.0,65.0,101325,0,0,0,0,0,0,0,0,0,0,0,14.3,0,0,9999,77777,9,999999999,0,0,0,99,0.2,0,0
2023,11,21,16,60,9,28.0,18.6,57.0,101325,0,0,0,0,0,0,0,0,0,0,0,14.5,0,0,9999,77777,9,999999999,0,0,0,99,0.2,0,0
2023,11,21,17,60,9,27.7,16.7,51.0,101325,0,0,0,0,0,0,0,0,0,0,0,16.1,0,0,9999,77777,9,999999999,0,0,0,99,0.2,0,0
2023,11,21,18,60,9,27.4,16.1,50.0,101325,0,0,0,0,0,0,0,0,0,0,0,15.3,0,0,9999,77777,9,999999999,0,0,0,99,0.2,0,0
2023,11,21,19,60,9,26.8,15.6,50.0,101325,0,0,0,0,0,0,0,0,0,0,0,12.2,0,0,9999,77777,9,999999999,0,0,0,99,0.2,0,0
2023,11,21,20,60,9,25.9,15.2,52.0,101325,0,0,0,0,0,0,0,0,0,0,0,8.2,0,0,9999,77777,9,999999999,0,0,0,99,0.2,0,0
2023,11,21,21,60,9,25.3,14.5,51.0,101325,0,0,0,0,0,0,0,0,0,0,0,8.2,0,0,9999,77777,9,999999999,0,0,0,99,0.2,0,0
2023,11,21,22,60,9,24.8,14.0,51.0,101325,0,0,0,0,0,0,0,0,0,0,0,9.6,0,0,9999,77777,9,999999999,0,0,0,99,0.2,0,0
2023,11,21,23,60,9,24.1,14.2,54.0,101325,0,0,0,0,0,0,0,0,0,0,0,9.4,0,0,9999,77777,9,999999999,0,0,0,99,0.2,0,0
2023,11,21,24,60,9,23.6,14.3,56.0,101325,0,0,0,0,0,0,0,0,0,0,0,8.9,0,0,9999,77777,9,999999999,0,0,0,99,0.2,0,0
2023,11,22,1,60,9,23.3,14.4,58.0,101325,0,0,0,0,0,0,0,0,0,0,0,8.1,0,0,9999,77777,9,999999999,0,0,0,99,0.2,0,0
2023,11,22,2,60,9,23.4,15.0,59.0,101325,0,0,0,0,0,0,0,0,0,0,0,9.0,0,0,9999,77777,9,999999999,0,0,0,99,0.2,0,0
2023,11,22,3,60,9,23.8,15.4,59.0,101325,0,0,0,0,0,0,0,0,0,0,0,10.5,0,0,9999,77777,9,999999999,0,0,0,99,0.2,0,0
2023,11,22,4,60,9,25.9,16.3,55.0,101325,0,0,0,0,0,0,0,0,0,0,0,10.5,0,0,9999,77777,9,999999999,0,0,0,99,0.2,0,0
2023,11,22,5,60,9,28.7,17.1,50.0,101325,0,0,0,0,0,0,0,0,0,0,0,9.7,0,0,9999,77777,9,999999999,0,0,0,99,0.2,0,0
2023,11,22,6,60,9,31.2,16.7,42.0,101325,0,0,0,0,0,0,0,0,0,0,0,8.9,0,0,9999,77777,9,999999999,0,0,0,99,0.2,0,0
2023,11,22,7,60,9,32.9,15.4,35.0,101325,0,0,0,0,0,0,0,0,0,0,0,7.1,0,0,9999,77777,9,999999999,0,0,0,99,0.2,0,0
2023,11,22,8,60,9,33.6,14.0,31.0,101325,0,0,0,0,0,0,0,0,0,0,0,4.0,0,0,9999,77777,9,999999999,0,0,0,99,0.2,0,0
2023,11,22,9,60,9,33.6,14.3,31.0,101325,0,0,0,0,0,0,0,0,0,0,0,6.9,0,0,9999,77777,9,999999999,0,0,0,99,0.2,0,0
2023,11,22,10,60,9,32.7,17.5,40.0,101325,0,0,0,0,0,0,0,0,0,0,0,14.8,0,0,9999,77777,9,999999999,0,0,0,99,0.2,0,0
2023,11,22,11,60,9,31.4,18.2,45.0,101325,0,0,0,0,0,0,0,0,0,0,0,18.4,0,0,9999,77777,9,999999999,0,0,0,99,0.2,0,0
2023,11,22,12,60,9,30.2,18.4,49.0,101325,0,0,0,0,0,0,0,0,0,0,0,17.7,0,0,9999,77777,9,999999999,0,0,0,99,0.2,0,0
2023,11,22,13,60,9,29.2,19.3,55.0,101325,0,0,0,0,0,0,0,0,0,0,0,16.6,0,0,9999,77777,9,999999999,0,0,0,99,0.2,0,0
2023,11,22,14,60,9,28.1,19.5,60.0,101325,0,0,0,0,0,0,0,0,0,0,0,16.4,0,0,9999,77777,9,999999999,0,0,0,99,0.2,0,0
2023,11,22,15,60,9,27.9,18.1,55.0,101325,0,0,0,0,0,0,0,0,0,0,0,17.1,0,0,9999,77777,9,999999999,0,0,0,99,0.2,0,0
2023,11,22,16,60,9,27.4,17.2,54.0,101325,0,0,0,0,0,0,0,0,0,0,0,15.3,0,0,9999,77777,9,999999999,0,0,0,99,0.2,0,0
2023,11,22,17,60,9,26.8,16.7,54.0,101325,0,0,0,0,0,0,0,0,0,0,0,13.3,0,0,9999,77777,9,999999999,0,0,0,99,0.2,0,0
2023,11,22,18,60,9,26.2,16.4,55.0,101325,0,0,0,0,0,0,0,0,0,0,0,11.2,0,0,9999,77777,9,999999999,0,0,0,99,0.2,0,0
2023,11,22,19,60,9,25.8,15.6,53.0,101325,0,0,0,0,0,0,0,0,0,0,0,10.5,0,0,9999,77777,9,999999999,0,0,0,99,0.2,0,0
2023,11,22,20,60,9,25.1,15.1,54.0,101325,0,0,0,0,0,0,0,0,0,0,0,7.3,0,0,9999,77777,9,999999999,0,0,0,99,0.2,0,0
2023,11,22,21,60,9,23.5,15.6,61.0,101325,0,0,0,0,0,0,0,0,0,0,0,7.9,0,0,9999,77777,9,999999999,0,0,0,99,0.2,0,0
2023,11,22,22,60,9,22.7,15.4,63.0,101325,0,0,0,0,0,0,0,0,0,0,0,8.1,0,0,9999,77777,9,999999999,0,0,0,99,0.2,0,0
2023,11,22,23,60,9,22.6,14.7,61.0,101325,0,0,0,0,0,0,0,0,0,0,0,6.2,0,0,9999,77777,9,999999999,0,0,0,99,0.2,0,0
2023,11,22,24,60,9,22.7,14.4,59.0,101325,0,0,0,0,0,0,0,0,0,0,0,6.8,0,0,9999,77777,9,999999999,0,0,0,99,0.2,0,0
2023,11,23,1,60,9,22.5,14.4,60.0,101325,0,0,0,0,0,0,0,0,0,0,0,7.9,0,0,9999,77777,9,999999999,0,0,0,99,0.2,0,0
2023,11,23,2,60,9,22.0,15.0,65.0,101325,0,0,0,0,0,0,0,0,0,0,0,7.1,0,0,9999,77777,9,999999999,0,0,0,99,0.2,0,0
2023,11,23,3,60,9,22.6,15.3,63.0,101325,0,0,0,0,0,0,0,0,0,0,0,9.4,0,0,9999,77777,9,999999999,0,0,0,99,0.2,0,0
2023,11,23,4,60,9,25.0,16.2,58.0,101325,0,0,0,0,0,0,0,0,0,0,0,8.5,0,0,9999,77777,9,999999999,0,0,0,99,0.2,0,0
2023,11,23,5,60,9,28.1,16.8,50.0,101325,0,0,0,0,0,0,0,0,0,0,0,7.9,0,0,9999,77777,9,999999999,0,0,0,99,0.2,0,0
2023,11,23,6,60,9,30.8,17.1,44.0,101325,0,0,0,0,0,0,0,0,0,0,0,7.1,0,0,9999,77777,9,999999999,0,0,0,99,0.2,0,0
2023,11,23,7,60,9,32.5,16.6,39.0,101325,0,0,0,0,0,0,0,0,0,0,0,5.1,0,0,9999,77777,9,999999999,0,0,0,99,0.2,0,0
2023,11,23,8,60,9,33.2,16.5,37.0,101325,0,0,0,0,0,0,0,0,0,0,0,6.7,0,0,9999,77777,9,999999999,0,0,0,99,0.2,0,0
2023,11,23,9,60,9,33.0,18.0,41.0,101325,0,0,0,0,0,0,0,0,0,0,0,11.4,0,0,9999,77777,9,999999999,0,0,0,99,0.2,0,0
2023,11,23,10,60,9,32.4,19.1,45.0,101325,0,0,0,0,0,0,0,0,0,0,0,14.2,0,0,9999,77777,9,999999999,0,0,0,99,0.2,0,0
2023,11,23,11,60,9,32.0,18.5,45.0,101325,0,0,0,0,0,0,0,0,0,0,0,14.3,0,0,9999,77777,9,999999999,0,0,0,99,0.2,0,0
2023,11,23,12,60,9,30.9,18.3,47.0,101325,0,0,0,0,0,0,0,0,0,0,0,16.1,0,0,9999,77777,9,999999999,0,0,0,99,0.2,0,0
2023,11,23,13,60,9,29.2,20.6,60.0,101325,0,0,0,0,0,0,0,0,0,0,0,16.7,0,0,9999,77777,9,999999999,0,0,0,99,0.2,0,0
2023,11,23,14,60,9,28.2,20.2,62.0,101325,0,0,0,0,0,0,0,0,0,0,0,18.1,0,0,9999,77777,9,999999999,0,0,0,99,0.2,0,0
2023,11,23,15,60,9,27.7,19.1,59.0,101325,0,0,0,0,0,0,0,0,0,0,0,15.5,0,0,9999,77777,9,999999999,0,0,0,99,0.2,0,0
2023,11,23,16,60,9,27.3,17.5,55.0,101325,0,0,0,0,0,0,0,0,0,0,0,14.4,0,0,9999,77777,9,999999999,0,0,0,99,0.2,0,0
2023,11,23,17,60,9,26.6,15.6,51.0,101325,0,0,0,0,0,0,0,0,0,0,0,11.3,0,0,9999,77777,9,999999999,0,0,0,99,0.2,0,0
2023,11,23,18,60,9,26.1,14.6,49.0,101325,0,0,0,0,0,0,0,0,0,0,0,9.7,0,0,9999,77777,9,999999999,0,0,0,99,0.2,0,0
2023,11,23,19,60,9,24.1,15.4,58.0,101325,0,0,0,0,0,0,0,0,0,0,0,8.0,0,0,9999,77777,9,999999999,0,0,0,99,0.2,0,0
2023,11,23,20,60,9,24.0,15.0,57.0,101325,0,0,0,0,0,0,0,0,0,0,0,7.6,0,0,9999,77777,9,999999999,0,0,0,99,0.2,0,0
2023,11,23,21,60,9,25.4,14.9,52.0,101325,0,0,0,0,0,0,0,0,0,0,0,5.0,0,0,9999,77777,9,999999999,0,0,0,99,0.2,0,0
2023,11,23,22,60,9,23.6,15.5,61.0,101325,0,0,0,0,0,0,0,0,0,0,0,5.6,0,0,9999,77777,9,999999999,0,0,0,99,0.2,0,0
2023,11,23,23,60,9,22.5,16.2,68.0,101325,0,0,0,0,0,0,0,0,0,0,0,7.9,0,0,9999,77777,9,999999999,0,0,0,99,0.2,0,0
2023,11,23,24,60,9,22.0,16.2,69.0,101325,0,0,0,0,0,0,0,0,0,0,0,7.4,0,0,9999,77777,9,999999999,0,0,0,99,0.2,0,0
2023,11,24,1,60,9,21.9,15.6,67.0,101325,0,0,0,0,0,0,0,0,0,0,0,6.1,0,0,9999,77777,9,999999999,0,0,0,99,0.2,0,0
2023,11,24,2,60,9,22.8,16.2,66.0,101325,0,0,0,0,0,0,0,0,0,0,0,7.1,0,0,9999,77777,9,999999999,0,0,0,99,0.2,0,0
2023,11,24,3,60,9,23.2,16.7,67.0,101325,0,0,0,0,0,0,0,0,0,0,0,9.8,0,0,9999,77777,9,999999999,0,0,0,99,0.2,0,0
2023,11,24,4,60,9,25.6,18.0,63.0,101325,0,0,0,0,0,0,0,0,0,0,0,10.1,0,0,9999,77777,9,999999999,0,0,0,99,0.2,0,0
2023,11,24,5,60,9,29.0,19.2,56.0,101325,0,0,0,0,0,0,0,0,0,0,0,8.0,0,0,9999,77777,9,999999999,0,0,0,99,0.2,0,0
2023,11,24,6,60,9,31.4,20.1,51.0,101325,0,0,0,0,0,0,0,0,0,0,0,9.0,0,0,9999,77777,9,999999999,0,0,0,99,0.2,0,0
2023,11,24,7,60,9,33.2,19.9,45.0,101325,0,0,0,0,0,0,0,0,0,0,0,9.0,0,0,9999,77777,9,999999999,0,0,0,99,0.2,0,0
2023,11,24,8,60,9,34.1,17.7,38.0,101325,0,0,0,0,0,0,0,0,0,0,0,7.6,0,0,9999,77777,9,999999999,0,0,0,99,0.2,0,0
2023,11,24,9,60,9,34.4,17.1,36.0,101325,0,0,0,0,0,0,0,0,0,0,0,5.1,0,0,9999,77777,9,999999999,0,0,0,99,0.2,0,0
2023,11,24,10,60,9,33.7,19.6,44.0,101325,0,0,0,0,0,0,0,0,0,0,0,9.0,0,0,9999,77777,9,999999999,0,0,0,99,0.2,0,0
2023,11,24,11,60,9,32.2,22.0,55.0,101325,0,0,0,0,0,0,0,0,0,0,0,14.3,0,0,9999,77777,9,999999999,0,0,0,99,0.2,0,0
2023,11,24,12,60,9,31.4,21.3,55.0,101325,0,0,0,0,0,0,0,0,0,0,0,15.2,0,0,9999,77777,9,999999999,0,0,0,99,0.2,0,0
2023,11,24,13,60,9,29.9,22.3,64.0,101325,0,0,0,0,0,0,0,0,0,0,0,10.7,0,0,9999,77777,9,999999999,0,0,0,99,0.2,0,0
2023,11,24,14,60,9,28.7,22.6,70.0,101325,0,0,0,0,0,0,0,0,0,0,0,6.0,0,0,9999,77777,9,999999999,0,0,0,99,0.2,0,0
2023,11,24,15,60,9,27.8,23.1,76.0,101325,0,0,0,0,0,0,0,0,0,0,0,6.6,0,0,9999,77777,9,999999999,0,0,0,99,0.2,0,0
2023,11,24,16,60,9,27.3,21.9,72.0,101325,0,0,0,0,0,0,0,0,0,0,0,8.7,0,0,9999,77777,9,999999999,0,0,0,99,0.2,0,0
2023,11,24,17,60,9,26.9,20.4,68.0,101325,0,0,0,0,0,0,0,0,0,0,0,8.3,0,0,9999,77777,9,999999999,0,0,0,99,0.2,0,0
2023,11,24,18,60,9,26.2,19.6,67.0,101325,0,0,0,0,0,0,0,0,0,0,0,6.5,0,0,9999,77777,9,999999999,0,0,0,99,0.2,0,0
2023,11,24,19,60,9,25.5,19.4,69.0,101325,0,0,0,0,0,0,0,0,0,0,0,6.3,0,0,9999,77777,9,999999999,0,0,0,99,0.2,0,0
2023,11,24,20,60,9,24.8,19.1,70.0,101325,0,0,0,0,0,0,0,0,0,0,0,6.5,0,0,9999,77777,9,999999999,0,0,0,99,0.2,0,0
2023,11,24,21,60,9,24.6,18.6,69.0,101325,0,0,0,0,0,0,0,0,0,0,0,7.4,0,0,9999,77777,9,999999999,0,0,0,99,0.2,0,0
2023,11,24,22,60,9,24.5,18.2,68.0,101325,0,0,0,0,0,0,0,0,0,0,0,9.4,0,0,9999,77777,9,999999999,0,0,0,99,0.2,0,0
2023,11,24,23,60,9,24.0,17.7,68.0,101325,0,0,0,0,0,0,0,0,0,0,0,10.4,0,0,9999,77777,9,999999999,0,0,0,99,0.2,0,0
2023,11,24,24,60,9,23.5,17.4,69.0,101325,0,0,0,0,0,0,0,0,0,0,0,10.6,0,0,9999,77777,9,999999999,0,0,0,99,0.2,0,0
2023,11,25,1,60,9,23.2,17.3,69.0,101325,0,0,0,0,0,0,0,0,0,0,0,9.7,0,0,9999,77777,9,999999999,0,0,0,99,0.2,0,0
2023,11,25,2,60,9,24.4,18.6,70.0,101325,0,0,0,0,0,0,0,0,0,0,0,8.2,0,0,9999,77777,9,999999999,0,0,0,99,0.2,0,0
2023,11,25,3,60,9,24.6,18.8,70.0,101325,0,0,0,0,0,0,0,0,0,0,0,9.9,0,0,9999,77777,9,999999999,0,0,0,99,0.2,0,0
2023,11,25,4,60,9,27.2,19.7,64.0,101325,0,0,0,0,0,0,0,0,0,0,0,9.1,0,0,9999,77777,9,999999999,0,0,0,99,0.2,0,0
2023,11,25,5,60,9,29.6,20.4,58.0,101325,0,0,0,0,0,0,0,0,0,0,0,11.0,0,0,9999,77777,9,999999999,0,0,0,99,0.2,0,0
2023,11,25,6,60,9,31.3,21.0,54.0,101325,0,0,0,0,0,0,0,0,0,0,0,10.1,0,0,9999,77777,9,999999999,0,0,0,99,0.2,0,0
2023,11,25,7,60,9,32.7,20.5,49.0,101325,0,0,0,0,0,0,0,0,0,0,0,10.7,0,0,9999,77777,9,999999999,0,0,0,99,0.2,0,0
2023,11,25,8,60,9,33.3,19.7,45.0,101325,0,0,0,0,0,0,0,0,0,0,0,9.7,0,0,9999,77777,9,999999999,0,0,0,99,0.2,0,0
2023,11,25,9,60,9,33.6,19.4,43.0,101325,0,0,0,0,0,0,0,0,0,0,0,6.2,0,0,9999,77777,9,999999999,0,0,0,99,0.2,0,0
2023,11,25,10,60,9,33.4,19.6,44.0,101325,0,0,0,0,0,0,0,0,0,0,0,6.4,0,0,9999,77777,9,999999999,0,0,0,99,0.2,0,0
2023,11,25,11,60,9,32.4,21.8,54.0,101325,0,0,0,0,0,0,0,0,0,0,0,11.4,0,0,9999,77777,9,999999999,0,0,0,99,0.2,0,0
2023,11,25,12,60,9,30.9,23.1,63.0,101325,0,0,0,0,0,0,0,0,0,0,0,12.0,0,0,9999,77777,9,999999999,0,0,0,99,0.2,0,0
2023,11,25,13,60,9,29.7,23.3,69.0,101325,0,0,0,0,0,0,0,0,0,0,0,9.6,0,0,9999,77777,9,999999999,0,0,0,99,0.2,0,0
2023,11,25,14,60,9,28.4,25.1,83.0,101325,0,0,0,0,0,0,0,0,0,0,0,9.7,0,0,9999,77777,9,999999999,0,0,0,99,0.2,0,0
2023,11,25,15,60,9,28.0,25.6,87.0,101325,0,0,0,0,0,0,0,0,0,0,0,7.7,0,0,9999,77777,9,999999999,0,0,0,99,0.2,0,0
2023,11,25,16,60,9,27.5,25.7,90.0,101325,0,0,0,0,0,0,0,0,0,0,0,10.0,0,0,9999,77777,9,999999999,0,0,0,99,0.2,0,0
2023,11,25,17,60,9,27.2,24.8,87.0,101325,0,0,0,0,0,0,0,0,0,0,0,8.3,0,0,9999,77777,9,999999999,0,0,0,99,0.2,0,0
2023,11,25,18,60,9,26.5,23.9,86.0,101325,0,0,0,0,0,0,0,0,0,0,0,4.2,0,0,9999,77777,9,999999999,0,0,0,99,0.2,0,0
2023,11,25,19,60,9,25.8,23.5,87.0,101325,0,0,0,0,0,0,0,0,0,0,0,5.6,0,0,9999,77777,9,999999999,0,0,0,99,0.2,0,0
2023,11,25,20,60,9,26.7,23.1,81.0,101325,0,0,0,0,0,0,0,0,0,0,0,3.2,0,0,9999,77777,9,999999999,0,0,0,99,0.2,0,0
2023,11,25,21,60,9,25.3,23.1,88.0,101325,0,0,0,0,0,0,0,0,0,0,0,4.1,0,0,9999,77777,9,999999999,0,0,0,99,0.2,0,0
2023,11,25,22,60,9,25.1,23.2,89.0,101325,0,0,0,0,0,0,0,0,0,0,0,3.4,0,0,9999,77777,9,999999999,0,0,0,99,0.2,0,0
2023,11,25,23,60,9,25.2,23.8,92.0,101325,0,0,0,0,0,0,0,0,0,0,0,5.8,0,0,9999,77777,9,999999999,0,0,0,99,0.2,0,0
2023,11,25,24,60,9,25.7,24.3,92.0,101325,0,0,0,0,0,0,0,0,0,0,0,7.7,0,0,9999,77777,9,999999999,0,0,0,99,0.2,0,0
2023,11,26,1,60,9,25.0,24.2,95.0,101325,0,0,0,0,0,0,0,0,0,0,0,5.2,0,0,9999,77777,9,999999999,0,0,0,99,0.2,0,0
2023,11,26,2,60,9,26.7,23.5,83.0,101325,0,0,0,0,0,0,0,0,0,0,0,2.5,0,0,9999,77777,9,999999999,0,0,0,99,0.2,0,0
2023,11,26,3,60,9,26.1,24.0,88.0,101325,0,0,0,0,0,0,0,0,0,0,0,2.5,0,0,9999,77777,9,999999999,0,0,0,99,0.2,0,0
2023,11,26,4,60,9,27.1,24.2,84.0,101325,0,0,0,0,0,0,0,0,0,0,0,7.5,0,0,9999,77777,9,999999999,0,0,0,99,0.2,0,0
2023,11,26,5,60,9,29.3,21.4,63.0,101325,0,0,0,0,0,0,0,0,0,0,0,9.8,0,0,9999,77777,9,999999999,0,0,0,99,0.2,0,0
2023,11,26,6,60,9,30.6,20.9,56.0,101325,0,0,0,0,0,0,0,0,0,0,0,11.2,0,0,9999,77777,9,999999999,0,0,0,99,0.2,0,0
2023,11,26,7,60,9,31.0,21.9,58.0,101325,0,0,0,0,0,0,0,0,0,0,0,11.3,0,0,9999,77777,9,999999999,0,0,0,99,0.2,0,0
2023,11,26,8,60,9,30.9,22.5,61.0,101325,0,0,0,0,0,0,0,0,0,0,0,12.1,0,0,9999,77777,9,999999999,0,0,0,99,0.2,0,0
2023,11,26,9,60,9,31.1,22.7,61.0,101325,0,0,0,0,0,0,0,0,0,0,0,11.1,0,0,9999,77777,9,999999999,0,0,0,99,0.2,0,0
2023,11,26,10,60,9,29.2,23.5,72.0,101325,0,0,0,0,0,0,0,0,0,0,0,13.1,0,0,9999,77777,9,999999999,0,0,0,99,0.2,0,0
2023,11,26,11,60,9,29.4,23.6,71.0,101325,0,0,0,0,0,0,0,0,0,0,0,12.2,0,0,9999,77777,9,999999999,0,0,0,99,0.2,0,0
2023,11,26,12,60,9,28.3,23.4,75.0,101325,0,0,0,0,0,0,0,0,0,0,0,8.3,0,0,9999,77777,9,999999999,0,0,0,99,0.2,0,0
2023,11,26,13,60,9,27.3,24.2,83.0,101325,0,0,0,0,0,0,0,0,0,0,0,7.1,0,0,9999,77777,9,999999999,0,0,0,99,0.2,0,0
2023,11,26,14,60,9,26.6,23.8,84.0,101325,0,0,0,0,0,0,0,0,0,0,0,6.3,0,0,9999,77777,9,999999999,0,0,0,99,0.2,0,0
2023,11,26,15,60,9,26.6,23.5,83.0,101325,0,0,0,0,0,0,0,0,0,0,0,9.5,0,0,9999,77777,9,999999999,0,0,0,99,0.2,0,0
2023,11,26,16,60,9,23.9,20.0,79.0,101325,0,0,0,0,0,0,0,0,0,0,0,19.0,0,0,9999,77777,9,999999999,0,0,0,99,0.2,0,0
2023,11,26,17,60,9,24.1,20.0,78.0,101325,0,0,0,0,0,0,0,0,0,0,0,7.2,0,0,9999,77777,9,999999999,0,0,0,99,0.2,0,0
2023,11,26,18,60,9,23.9,20.9,83.0,101325,0,0,0,0,0,0,0,0,0,0,0,2.1,0,0,9999,77777,9,999999999,0,0,0,99,0.2,0,0
2023,11,26,19,60,9,24.2,21.0,82.0,101325,0,0,0,0,0,0,0,0,0,0,0,0.8,0,0,9999,77777,9,999999999,0,0,0,99,0.2,0,0
2023,11,26,20,60,9,24.0,21.1,84.0,101325,0,0,0,0,0,0,0,0,0,0,0,7.1,0,0,9999,77777,9,999999999,0,0,0,99,0.2,0,0
2023,11,26,21,60,9,24.2,21.7,86.0,101325,0,0,0,0,0,0,0,0,0,0,0,3.2,0,0,9999,77777,9,999999999,0,0,0,99,0.2,0,0
2023,11,26,22,60,9,23.9,22.3,91.0,101325,0,0,0,0,0,0,0,0,0,0,0,1.5,0,0,9999,77777,9,999999999,0,0,0,99,0.2,0,0
2023,11,26,23,60,9,23.9,22.0,89.0,101325,0,0,0,0,0,0,0,0,0,0,0,0.5,0,0,9999,77777,9,999999999,0,0,0,99,0.2,0,0
2023,11,26,24,60,9,23.8,22.1,90.0,101325,0,0,0,0,0,0,0,0,0,0,0,2.0,0,0,9999,77777,9,999999999,0,0,0,99,0.2,0,0
2023,11,27,1,60,9,23.5,22.2,92.0,101325,0,0,0,0,0,0,0,0,0,0,0,2.9,0,0,9999,77777,9,999999999,0,0,0,99,0.2,0,0
2023,11,27,2,60,9,23.4,22.1,93.0,101325,0,0,0,0,0,0,0,0,0,0,0,6.4,0,0,9999,77777,9,999999999,0,0,0,99,0.2,0,0
2023,11,27,3,60,9,23.7,22.1,91.0,101325,0,0,0,0,0,0,0,0,0,0,0,6.5,0,0,9999,77777,9,999999999,0,0,0,99,0.2,0,0
2023,11,27,4,60,9,25.1,22.1,83.0,101325,0,0,0,0,0,0,0,0,0,0,0,6.5,0,0,9999,77777,9,999999999,0,0,0,99,0.2,0,0
2023,11,27,5,60,9,27.0,21.8,73.0,101325,0,0,0,0,0,0,0,0,0,0,0,6.5,0,0,9999,77777,9,999999999,0,0,0,99,0.2,0,0
2023,11,27,6,60,9,28.1,21.1,66.0,101325,0,0,0,0,0,0,0,0,0,0,0,6.1,0,0,9999,77777,9,999999999,0,0,0,99,0.2,0,0
2023,11,27,7,60,9,29.2,20.7,60.0,101325,0,0,0,0,0,0,0,0,0,0,0,4.6,0,0,9999,77777,9,999999999,0,0,0,99,0.2,0,0
2023,11,27,8,60,9,29.8,20.8,59.0,101325,0,0,0,0,0,0,0,0,0,0,0,4.2,0,0,9999,77777,9,999999999,0,0,0,99,0.2,0,0
2023,11,27,9,60,9,30.3,20.3,55.0,101325,0,0,0,0,0,0,0,0,0,0,0,6.3,0,0,9999,77777,9,999999999,0,0,0,99,0.2,0,0
2023,11,27,10,60,9,30.3,20.1,54.0,101325,0,0,0,0,0,0,0,0,0,0,0,9.1,0,0,9999,77777,9,999999999,0,0,0,99,0.2,0,0
2023,11,27,11,60,9,29.6,20.6,58.0,101325,0,0,0,0,0,0,0,0,0,0,0,11.8,0,0,9999,77777,9,999999999,0,0,0,99,0.2,0,0
2023,11,27,12,60,9,28.5,21.6,66.0,101325,0,0,0,0,0,0,0,0,0,0,0,14.0,0,0,9999,77777,9,999999999,0,0,0,99,0.2,0,0
2023,11,27,13,60,9,27.3,22.0,73.0,101325,0,0,0,0,0,0,0,0,0,0,0,12.2,0,0,9999,77777,9,999999999,0,0,0,99,0.2,0,0
2023,11,27,14,60,9,26.9,22.2,75.0,101325,0,0,0,0,0,0,0,0,0,0,0,13.7,0,0,9999,77777,9,999999999,0,0,0,99,0.2,0,0
2023,11,27,15,60,9,26.2,22.5,80.0,101325,0,0,0,0,0,0,0,0,0,0,0,14.9,0,0,9999,77777,9,999999999,0,0,0,99,0.2,0,0
2023,11,27,16,60,9,25.6,22.2,82.0,101325,0,0,0,0,0,0,0,0,0,0,0,11.2,0,0,9999,77777,9,999999999,0,0,0,99,0.2,0,0
2023,11,27,17,60,9,25.0,22.1,84.0,101325,0,0,0,0,0,0,0,0,0,0,0,7.3,0,0,9999,77777,9,999999999,0,0,0,99,0.2,0,0
2023,11,27,18,60,9,24.5,22.0,86.0,101325,0,0,0,0,0,0,0,0,0,0,0,6.2,0,0,9999,77777,9,999999999,0,0,0,99,0.2,0,0
2023,11,27,19,60,9,24.3,22.0,87.0,101325,0,0,0,0,0,0,0,0,0,0,0,6.5,0,0,9999,77777,9,999999999,0,0,0,99,0.2,0,0
2023,11,27,20,60,9,24.0,22.0,89.0,101325,0,0,0,0,0,0,0,0,0,0,0,6.6,0,0,9999,77777,9,999999999,0,0,0,99,0.2,0,0
2023,11,27,21,60,9,23.6,22.0,91.0,101325,0,0,0,0,0,0,0,0,0,0,0,4.0,0,0,9999,77777,9,999999999,0,0,0,99,0.2,0,0
2023,11,27,22,60,9,23.2,22.0,93.0,101325,0,0,0,0,0,0,0,0,0,0,0,3.2,0,0,9999,77777,9,999999999,0,0,0,99,0.2,0,0
2023,11,27,23,60,9,22.9,22.0,95.0,101325,0,0,0,0,0,0,0,0,0,0,0,3.5,0,0,9999,77777,9,999999999,0,0,0,99,0.2,0,0
2023,11,27,24,60,9,22.9,22.0,95.0,101325,0,0,0,0,0,0,0,0,0,0,0,3.7,0,0,9999,77777,9,999999999,0,0,0,99,0.2,0,0
2023,11,28,1,60,9,23.0,21.8,93.0,101325,0,0,0,0,0,0,0,0,0,0,0,5.4,0,0,9999,77777,9,999999999,0,0,0,99,0.2,0,0
2023,11,28,2,60,9,23.1,21.6,91.0,101325,0,0,0,0,0,0,0,0,0,0,0,4.2,0,0,9999,77777,9,999999999,0,0,0,99,0.2,0,0
2023,11,28,3,60,9,24.0,21.2,84.0,101325,0,0,0,0,0,0,0,0,0,0,0,8.6,0,0,9999,77777,9,999999999,0,0,0,99,0.2,0,0
2023,11,28,4,60,9,25.3,20.6,75.0,101325,0,0,0,0,0,0,0,0,0,0,0,6.7,0,0,9999,77777,9,999999999,0,0,0,99,0.2,0,0
2023,11,28,5,60,9,27.1,20.4,67.0,101325,0,0,0,0,0,0,0,0,0,0,0,7.6,0,0,9999,77777,9,999999999,0,0,0,99,0.2,0,0
2023,11,28,6,60,9,28.5,20.0,60.0,101325,0,0,0,0,0,0,0,0,0,0,0,6.3,0,0,9999,77777,9,999999999,0,0,0,99,0.2,0,0
2023,11,28,7,60,9,29.5,19.8,56.0,101325,0,0,0,0,0,0,0,0,0,0,0,6.9,0,0,9999,77777,9,999999999,0,0,0,99,0.2,0,0
2023,11,28,8,60,9,30.0,19.7,54.0,101325,0,0,0,0,0,0,0,0,0,0,0,10.9,0,0,9999,77777,9,999999999,0,0,0,99,0.2,0,0
2023,11,28,9,60,9,29.9,19.8,55.0,101325,0,0,0,0,0,0,0,0,0,0,0,14.6,0,0,9999,77777,9,999999999,0,0,0,99,0.2,0,0
2023,11,28,10,60,9,29.3,20.0,57.0,101325,0,0,0,0,0,0,0,0,0,0,0,16.4,0,0,9999,77777,9,999999999,0,0,0,99,0.2,0,0
2023,11,28,11,60,9,28.9,20.0,59.0,101325,0,0,0,0,0,0,0,0,0,0,0,16.6,0,0,9999,77777,9,999999999,0,0,0,99,0.2,0,0
2023,11,28,12,60,9,28.0,19.6,60.0,101325,0,0,0,0,0,0,0,0,0,0,0,15.5,0,0,9999,77777,9,999999999,0,0,0,99,0.2,0,0
2023,11,28,13,60,9,27.1,19.3,63.0,101325,0,0,0,0,0,0,0,0,0,0,0,14.3,0,0,9999,77777,9,999999999,0,0,0,99,0.2,0,0
2023,11,28,14,60,9,26.3,20.4,70.0,101325,0,0,0,0,0,0,0,0,0,0,0,15.0,0,0,9999,77777,9,999999999,0,0,0,99,0.2,0,0
2023,11,28,15,60,9,25.8,20.5,73.0,101325,0,0,0,0,0,0,0,0,0,0,0,14.3,0,0,9999,77777,9,999999999,0,0,0,99,0.2,0,0
2023,11,28,16,60,9,25.3,19.8,72.0,101325,0,0,0,0,0,0,0,0,0,0,0,13.6,0,0,9999,77777,9,999999999,0,0,0,99,0.2,0,0
2023,11,28,17,60,9,24.6,19.0,71.0,101325,0,0,0,0,0,0,0,0,0,0,0,12.4,0,0,9999,77777,9,999999999,0,0,0,99,0.2,0,0
2023,11,28,18,60,9,24.2,18.5,71.0,101325,0,0,0,0,0,0,0,0,0,0,0,11.2,0,0,9999,77777,9,999999999,0,0,0,99,0.2,0,0
2023,11,28,19,60,9,23.8,18.1,71.0,101325,0,0,0,0,0,0,0,0,0,0,0,10.2,0,0,9999,77777,9,999999999,0,0,0,99,0.2,0,0
2023,11,28,20,60,9,23.3,18.0,72.0,101325,0,0,0,0,0,0,0,0,0,0,0,9.5,0,0,9999,77777,9,999999999,0,0,0,99,0.2,0,0
2023,11,28,21,60,9,22.7,17.7,73.0,101325,0,0,0,0,0,0,0,0,0,0,0,7.9,0,0,9999,77777,9,999999999,0,0,0,99,0.2,0,0
2023,11,28,22,60,9,22.2,17.6,75.0,101325,0,0,0,0,0,0,0,0,0,0,0,6.2,0,0,9999,77777,9,999999999,0,0,0,99,0.2,0,0
2023,11,28,23,60,9,21.5,17.8,79.0,101325,0,0,0,0,0,0,0,0,0,0,0,4.7,0,0,9999,77777,9,999999999,0,0,0,99,0.2,0,0
2023,11,28,24,60,9,20.6,18.0,85.0,101325,0,0,0,0,0,0,0,0,0,0,0,5.4,0,0,9999,77777,9,999999999,0,0,0,99,0.2,0,0
2023,11,29,1,60,9,20.5,18.0,85.0,101325,0,0,0,0,0,0,0,0,0,0,0,4.7,0,0,9999,77777,9,999999999,0,0,0,99,0.2,0,0
2023,11,29,2,60,9,21.1,18.4,85.0,101325,0,0,0,0,0,0,0,0,0,0,0,3.3,0,0,9999,77777,9,999999999,0,0,0,99,0.2,0,0
2023,11,29,3,60,9,22.0,18.5,81.0,101325,0,0,0,0,0,0,0,0,0,0,0,3.9,0,0,9999,77777,9,999999999,0,0,0,99,0.2,0,0
2023,11,29,4,60,9,23.7,17.7,69.0,101325,0,0,0,0,0,0,0,0,0,0,0,4.3,0,0,9999,77777,9,999999999,0,0,0,99,0.2,0,0
2023,11,29,5,60,9,25.7,18.0,63.0,101325,0,0,0,0,0,0,0,0,0,0,0,3.7,0,0,9999,77777,9,999999999,0,0,0,99,0.2,0,0
2023,11,29,6,60,9,27.3,18.4,58.0,101325,0,0,0,0,0,0,0,0,0,0,0,2.0,0,0,9999,77777,9,999999999,0,0,0,99,0.2,0,0
2023,11,29,7,60,9,28.4,18.4,55.0,101325,0,0,0,0,0,0,0,0,0,0,0,6.6,0,0,9999,77777,9,999999999,0,0,0,99,0.2,0,0
2023,11,29,8,60,9,28.8,18.5,54.0,101325,0,0,0,0,0,0,0,0,0,0,0,9.0,0,0,9999,77777,9,999999999,0,0,0,99,0.2,0,0
2023,11,29,9,60,9,28.8,18.7,54.0,101325,0,0,0,0,0,0,0,0,0,0,0,11.6,0,0,9999,77777,9,999999999,0,0,0,99,0.2,0,0
2023,11,29,10,60,9,28.5,19.3,57.0,101325,0,0,0,0,0,0,0,0,0,0,0,13.8,0,0,9999,77777,9,999999999,0,0,0,99,0.2,0,0
2023,11,29,11,60,9,27.9,19.8,61.0,101325,0,0,0,0,0,0,0,0,0,0,0,14.7,0,0,9999,77777,9,999999999,0,0,0,99,0.2,0,0
2023,11,29,12,60,9,27.2,19.7,63.0,101325,0,0,0,0,0,0,0,0,0,0,0,14.5,0,0,9999,77777,9,999999999,0,0,0,99,0.2,0,0
2023,11,29,13,60,9,26.2,19.7,68.0,101325,0,0,0,0,0,0,0,0,0,0,0,14.8,0,0,9999,77777,9,999999999,0,0,0,99,0.2,0,0
2023,11,29,14,60,9,25.4,20.2,73.0,101325,0,0,0,0,0,0,0,0,0,0,0,15.3,0,0,9999,77777,9,999999999,0,0,0,99,0.2,0,0
2023,11,29,15,60,9,25.1,20.4,75.0,101325,0,0,0,0,0,0,0,0,0,0,0,14.3,0,0,9999,77777,9,999999999,0,0,0,99,0.2,0,0
2023,11,29,16,60,9,24.6,20.7,79.0,101325,0,0,0,0,0,0,0,0,0,0,0,13.3,0,0,9999,77777,9,999999999,0,0,0,99,0.2,0,0
2023,11,29,17,60,9,24.0,21.0,83.0,101325,0,0,0,0,0,0,0,0,0,0,0,11.5,0,0,9999,77777,9,999999999,0,0,0,99,0.2,0,0
2023,11,29,18,60,9,23.3,21.3,89.0,101325,0,0,0,0,0,0,0,0,0,0,0,9.6,0,0,9999,77777,9,999999999,0,0,0,99,0.2,0,0
2023,11,29,19,60,9,22.5,21.0,91.0,101325,0,0,0,0,0,0,0,0,0,0,0,6.7,0,0,9999,77777,9,999999999,0,0,0,99,0.2,0,0
2023,11,29,20,60,9,21.5,20.5,94.0,101325,0,0,0,0,0,0,0,0,0,0,0,5.9,0,0,9999,77777,9,999999999,0,0,0,99,0.2,0,0
2023,11,29,21,60,9,21.0,20.1,95.0,101325,0,0,0,0,0,0,0,0,0,0,0,6.0,0,0,9999,77777,9,999999999,0,0,0,99,0.2,0,0
2023,11,29,22,60,9,20.6,19.8,95.0,101325,0,0,0,0,0,0,0,0,0,0,0,6.3,0,0,9999,77777,9,999999999,0,0,0,99,0.2,0,0
2023,11,29,23,60,9,20.9,20.1,95.0,101325,0,0,0,0,0,0,0,0,0,0,0,4.6,0,0,9999,77777,9,999999999,0,0,0,99,0.2,0,0
2023,11,29,24,60,9,20.8,19.9,95.0,101325,0,0,0,0,0,0,0,0,0,0,0,3.3,0,0,9999,77777,9,999999999,0,0,0,99,0.2,0,0
2023,11,30,1,60,9,20.5,19.9,96.0,101325,0,0,0,0,0,0,0,0,0,0,0,2.4,0,0,9999,77777,9,999999999,0,0,0,99,0.2,0,0
2023,11,30,2,60,9,21.1,20.2,95.0,101325,0,0,0,0,0,0,0,0,0,0,0,3.6,0,0,9999,77777,9,999999999,0,0,0,99,0.2,0,0
2023,11,30,3,60,9,21.4,20.1,92.0,101325,0,0,0,0,0,0,0,0,0,0,0,5.0,0,0,9999,77777,9,999999999,0,0,0,99,0.2,0,0
2023,11,30,4,60,9,23.0,20.6,86.0,101325,0,0,0,0,0,0,0,0,0,0,0,4.7,0,0,9999,77777,9,999999999,0,0,0,99,0.2,0,0
2023,11,30,5,60,9,25.8,20.5,73.0,101325,0,0,0,0,0,0,0,0,0,0,0,4.3,0,0,9999,77777,9,999999999,0,0,0,99,0.2,0,0
2023,11,30,6,60,9,28.0,19.9,61.0,101325,0,0,0,0,0,0,0,0,0,0,0,6.3,0,0,9999,77777,9,999999999,0,0,0,99,0.2,0,0
2023,11,30,7,60,9,29.2,18.9,54.0,101325,0,0,0,0,0,0,0,0,0,0,0,7.7,0,0,9999,77777,9,999999999,0,0,0,99,0.2,0,0
2023,11,30,8,60,9,29.7,19.0,52.0,101325,0,0,0,0,0,0,0,0,0,0,0,11.4,0,0,9999,77777,9,999999999,0,0,0,99,0.2,0,0
2023,11,30,9,60,9,29.6,19.1,53.0,101325,0,0,0,0,0,0,0,0,0,0,0,14.8,0,0,9999,77777,9,999999999,0,0,0,99,0.2,0,0
2023,11,30,10,60,9,29.1,19.6,57.0,101325,0,0,0,0,0,0,0,0,0,0,0,16.8,0,0,9999,77777,9,999999999,0,0,0,99,0.2,0,0
2023,11,30,11,60,9,28.4,20.0,61.0,101325,0,0,0,0,0,0,0,0,0,0,0,17.8,0,0,9999,77777,9,999999999,0,0,0,99,0.2,0,0
2023,11,30,12,60,9,27.7,20.3,64.0,101325,0,0,0,0,0,0,0,0,0,0,0,17.3,0,0,9999,77777,9,999999999,0,0,0,99,0.2,0,0
2023,11,30,13,60,9,26.6,20.7,70.0,101325,0,0,0,0,0,0,0,0,0,0,0,15.3,0,0,9999,77777,9,999999999,0,0,0,99,0.2,0,0
2023,11,30,14,60,9,25.9,21.1,75.0,101325,0,0,0,0,0,0,0,0,0,0,0,13.8,0,0,9999,77777,9,999999999,0,0,0,99,0.2,0,0
2023,11,30,15,60,9,25.5,21.4,78.0,101325,0,0,0,0,0,0,0,0,0,0,0,14.5,0,0,9999,77777,9,999999999,0,0,0,99,0.2,0,0
2023,11,30,16,60,9,25.1,21.8,82.0,101325,0,0,0,0,0,0,0,0,0,0,0,13.1,0,0,9999,77777,9,999999999,0,0,0,99,0.2,0,0
2023,11,30,17,60,9,24.7,22.1,85.0,101325,0,0,0,0,0,0,0,0,0,0,0,12.2,0,0,9999,77777,9,999999999,0,0,0,99,0.2,0,0
2023,11,30,18,60,9,24.2,22.1,88.0,101325,0,0,0,0,0,0,0,0,0,0,0,9.0,0,0,9999,77777,9,999999999,0,0,0,99,0.2,0,0
2023,11,30,19,60,9,23.6,21.9,90.0,101325,0,0,0,0,0,0,0,0,0,0,0,6.5,0,0,9999,77777,9,999999999,0,0,0,99,0.2,0,0
2023,11,30,20,60,9,23.1,21.7,92.0,101325,0,0,0,0,0,0,0,0,0,0,0,5.1,0,0,9999,77777,9,999999999,0,0,0,99,0.2,0,0
2023,11,30,21,60,9,22.7,21.6,94.0,101325,0,0,0,0,0,0,0,0,0,0,0,4.7,0,0,9999,77777,9,999999999,0,0,0,99,0.2,0,0
2023,11,30,22,60,9,22.3,21.3,94.0,101325,0,0,0,0,0,0,0,0,0,0,0,5.8,0,0,9999,77777,9,999999999,0,0,0,99,0.2,0,0
2023,11,30,23,60,9,22.0,21.0,94.0,101325,0,0,0,0,0,0,0,0,0,0,0,5.1,0,0,9999,77777,9,999999999,0,0,0,99,0.2,0,0
2023,11,30,24,60,9,21.9,20.8,93.0,101325,0,0,0,0,0,0,0,0,0,0,0,3.8,0,0,9999,77777,9,999999999,0,0,0,99,0.2,0,0
2023,12,1,1,60,9,21.7,20.7,94.0,101325,0,0,0,0,0,0,0,0,0,0,0,4.0,0,0,9999,77777,9,999999999,0,0,0,99,0.2,0,0
2023,12,1,2,60,9,22.1,21.0,93.0,101325,0,0,0,0,0,0,0,0,0,0,0,5.1,0,0,9999,77777,9,999999999,0,0,0,99,0.2,0,0
2023,12,1,3,60,9,22.6,21.1,91.0,101325,0,0,0,0,0,0,0,0,0,0,0,7.2,0,0,9999,77777,9,999999999,0,0,0,99,0.2,0,0
2023,12,1,4,60,9,23.9,21.5,86.0,101325,0,0,0,0,0,0,0,0,0,0,0,6.8,0,0,9999,77777,9,999999999,0,0,0,99,0.2,0,0
2023,12,1,5,60,9,26.1,21.5,76.0,101325,0,0,0,0,0,0,0,0,0,0,0,5.9,0,0,9999,77777,9,999999999,0,0,0,99,0.2,0,0
2023,12,1,6,60,9,28.0,20.7,64.0,101325,0,0,0,0,0,0,0,0,0,0,0,4.3,0,0,9999,77777,9,999999999,0,0,0,99,0.2,0,0
2023,12,1,7,60,9,29.2,19.9,57.0,101325,0,0,0,0,0,0,0,0,0,0,0,1.5,0,0,9999,77777,9,999999999,0,0,0,99,0.2,0,0
2023,12,1,8,60,9,29.7,19.9,56.0,101325,0,0,0,0,0,0,0,0,0,0,0,6.6,0,0,9999,77777,9,999999999,0,0,0,99,0.2,0,0
2023,12,1,9,60,9,29.1,20.7,61.0,101325,0,0,0,0,0,0,0,0,0,0,0,13.0,0,0,9999,77777,9,999999999,0,0,0,99,0.2,0,0
2023,12,1,10,60,9,28.7,20.7,62.0,101325,0,0,0,0,0,0,0,0,0,0,0,14.7,0,0,9999,77777,9,999999999,0,0,0,99,0.2,0,0
2023,12,1,11,60,9,28.2,20.4,63.0,101325,0,0,0,0,0,0,0,0,0,0,0,15.3,0,0,9999,77777,9,999999999,0,0,0,99,0.2,0,0
2023,12,1,12,60,9,27.5,20.2,64.0,101325,0,0,0,0,0,0,0,0,0,0,0,15.8,0,0,9999,77777,9,999999999,0,0,0,99,0.2,0,0
2023,12,1,13,60,9,26.6,19.9,67.0,101325,0,0,0,0,0,0,0,0,0,0,0,14.2,0,0,9999,77777,9,999999999,0,0,0,99,0.2,0,0
2023,12,1,14,60,9,25.4,21.3,78.0,101325,0,0,0,0,0,0,0,0,0,0,0,13.0,0,0,9999,77777,9,999999999,0,0,0,99,0.2,0,0
2023,12,1,15,60,9,24.9,21.6,82.0,101325,0,0,0,0,0,0,0,0,0,0,0,10.9,0,0,9999,77777,9,999999999,0,0,0,99,0.2,0,0
2023,12,1,16,60,9,24.5,21.8,85.0,101325,0,0,0,0,0,0,0,0,0,0,0,9.3,0,0,9999,77777,9,999999999,0,0,0,99,0.2,0,0
2023,12,1,17,60,9,24.0,22.1,89.0,101325,0,0,0,0,0,0,0,0,0,0,0,8.0,0,0,9999,77777,9,999999999,0,0,0,99,0.2,0,0
2023,12,1,18,60,9,23.3,22.1,93.0,101325,0,0,0,0,0,0,0,0,0,0,0,7.3,0,0,9999,77777,9,999999999,0,0,0,99,0.2,0,0
2023,12,1,19,60,9,22.5,21.6,95.0,101325,0,0,0,0,0,0,0,0,0,0,0,5.5,0,0,9999,77777,9,999999999,0,0,0,99,0.2,0,0
2023,12,1,20,60,9,21.6,20.9,96.0,101325,0,0,0,0,0,0,0,0,0,0,0,5.9,0,0,9999,77777,9,999999999,0,0,0,99,0.2,0,0
2023,12,1,21,60,9,22.7,21.2,91.0,101325,0,0,0,0,0,0,0,0,0,0,0,3.6,0,0,9999,77777,9,999999999,0,0,0,99,0.2,0,0
2023,12,1,22,60,9,21.1,20.4,96.0,101325,0,0,0,0,0,0,0,0,0,0,0,5.1,0,0,9999,77777,9,999999999,0,0,0,99,0.2,0,0
2023,12,1,23,60,9,20.9,20.4,97.0,101325,0,0,0,0,0,0,0,0,0,0,0,4.7,0,0,9999,77777,9,999999999,0,0,0,99,0.2,0,0
2023,12,1,24,60,9,20.5,20.2,98.0,101325,0,0,0,0,0,0,0,0,0,0,0,3.7,0,0,9999,77777,9,999999999,0,0,0,99,0.2,0,0
2023,12,2,1,60,9,20.8,20.2,96.0,101325,0,0,0,0,0,0,0,0,0,0,0,2.8,0,0,9999,77777,9,999999999,0,0,0,99,0.2,0,0
2023,12,2,2,60,9,21.4,20.9,97.0,101325,0,0,0,0,0,0,0,0,0,0,0,4.3,0,0,9999,77777,9,999999999,0,0,0,99,0.2,0,0
2023,12,2,3,60,9,21.5,21.1,98.0,101325,0,0,0,0,0,0,0,0,0,0,0,5.6,0,0,9999,77777,9,999999999,0,0,0,99,0.2,0,0
2023,12,2,4,60,9,22.8,21.5,92.0,101325,0,0,0,0,0,0,0,0,0,0,0,6.6,0,0,9999,77777,9,999999999,0,0,0,99,0.2,0,0
2023,12,2,5,60,9,26.3,21.3,74.0,101325,0,0,0,0,0,0,0,0,0,0,0,6.8,0,0,9999,77777,9,999999999,0,0,0,99,0.2,0,0
2023,12,2,6,60,9,29.1,20.5,60.0,101325,0,0,0,0,0,0,0,0,0,0,0,5.8,0,0,9999,77777,9,999999999,0,0,0,99,0.2,0,0
2023,12,2,7,60,9,30.8,20.3,54.0,101325,0,0,0,0,0,0,0,0,0,0,0,5.6,0,0,9999,77777,9,999999999,0,0,0,99,0.2,0,0
2023,12,2,8,60,9,31.6,20.1,50.0,101325,0,0,0,0,0,0,0,0,0,0,0,8.4,0,0,9999,77777,9,999999999,0,0,0,99,0.2,0,0
2023,12,2,9,60,9,31.5,20.5,52.0,101325,0,0,0,0,0,0,0,0,0,0,0,9.6,0,0,9999,77777,9,999999999,0,0,0,99,0.2,0,0
2023,12,2,10,60,9,31.0,21.1,56.0,101325,0,0,0,0,0,0,0,0,0,0,0,11.2,0,0,9999,77777,9,999999999,0,0,0,99,0.2,0,0
2023,12,2,11,60,9,30.3,21.0,58.0,101325,0,0,0,0,0,0,0,0,0,0,0,12.5,0,0,9999,77777,9,999999999,0,0,0,99,0.2,0,0
2023,12,2,12,60,9,29.4,21.2,61.0,101325,0,0,0,0,0,0,0,0,0,0,0,13.2,0,0,9999,77777,9,999999999,0,0,0,99,0.2,0,0
2023,12,2,13,60,9,28.1,21.8,69.0,101325,0,0,0,0,0,0,0,0,0,0,0,14.8,0,0,9999,77777,9,999999999,0,0,0,99,0.2,0,0
2023,12,2,14,60,9,27.4,22.3,74.0,101325,0,0,0,0,0,0,0,0,0,0,0,11.5,0,0,9999,77777,9,999999999,0,0,0,99,0.2,0,0
2023,12,2,15,60,9,26.8,22.6,78.0,101325,0,0,0,0,0,0,0,0,0,0,0,8.2,0,0,9999,77777,9,999999999,0,0,0,99,0.2,0,0
2023,12,2,16,60,9,26.1,22.0,78.0,101325,0,0,0,0,0,0,0,0,0,0,0,7.9,0,0,9999,77777,9,999999999,0,0,0,99,0.2,0,0
2023,12,2,17,60,9,25.6,21.1,76.0,101325,0,0,0,0,0,0,0,0,0,0,0,5.9,0,0,9999,77777,9,999999999,0,0,0,99,0.2,0,0
2023,12,2,18,60,9,25.4,21.1,77.0,101325,0,0,0,0,0,0,0,0,0,0,0,6.5,0,0,9999,77777,9,999999999,0,0,0,99,0.2,0,0
2023,12,2,19,60,9,25.2,20.9,77.0,101325,0,0,0,0,0,0,0,0,0,0,0,5.1,0,0,9999,77777,9,999999999,0,0,0,99,0.2,0,0
2023,12,2,20,60,9,24.9,20.7,78.0,101325,0,0,0,0,0,0,0,0,0,0,0,5.0,0,0,9999,77777,9,999999999,0,0,0,99,0.2,0,0
2023,12,2,21,60,9,24.3,20.4,79.0,101325,0,0,0,0,0,0,0,0,0,0,0,4.8,0,0,9999,77777,9,999999999,0,0,0,99,0.2,0,0
2023,12,2,22,60,9,24.1,20.3,79.0,101325,0,0,0,0,0,0,0,0,0,0,0,5.6,0,0,9999,77777,9,999999999,0,0,0,99,0.2,0,0
2023,12,2,23,60,9,24.0,20.2,79.0,101325,0,0,0,0,0,0,0,0,0,0,0,8.1,0,0,9999,77777,9,999999999,0,0,0,99,0.2,0,0
2023,12,2,24,60,9,23.6,20.0,81.0,101325,0,0,0,0,0,0,0,0,0,0,0,5.9,0,0,9999,77777,9,999999999,0,0,0,99,0.2,0,0
2023,12,3,1,60,9,23.4,19.9,81.0,101325,0,0,0,0,0,0,0,0,0,0,0,5.1,0,0,9999,77777,9,999999999,0,0,0,99,0.2,0,0
2023,12,3,2,60,9,23.9,20.5,81.0,101325,0,0,0,0,0,0,0,0,0,0,0,6.4,0,0,9999,77777,9,999999999,0,0,0,99,0.2,0,0
2023,12,3,3,60,9,23.9,20.4,81.0,101325,0,0,0,0,0,0,0,0,0,0,0,6.8,0,0,9999,77777,9,999999999,0,0,0,99,0.2,0,0
2023,12,3,4,60,9,25.7,20.9,75.0,101325,0,0,0,0,0,0,0,0,0,0,0,6.6,0,0,9999,77777,9,999999999,0,0,0,99,0.2,0,0
2023,12,3,5,60,9,28.7,20.7,62.0,101325,0,0,0,0,0,0,0,0,0,0,0,4.8,0,0,9999,77777,9,999999999,0,0,0,99,0.2,0,0
2023,12,3,6,60,9,31.0,19.8,52.0,101325,0,0,0,0,0,0,0,0,0,0,0,6.7,0,0,9999,77777,9,999999999,0,0,0,99,0.2,0,0
2023,12,3,7,60,9,32.4,19.8,47.0,101325,0,0,0,0,0,0,0,0,0,0,0,5.2,0,0,9999,77777,9,999999999,0,0,0,99,0.2,0,0
2023,12,3,8,60,9,33.3,19.1,43.0,101325,0,0,0,0,0,0,0,0,0,0,0,4.6,0,0,9999,77777,9,999999999,0,0,0,99,0.2,0,0
2023,12,3,9,60,9,32.5,21.0,51.0,101325,0,0,0,0,0,0,0,0,0,0,0,13.0,0,0,9999,77777,9,999999999,0,0,0,99,0.2,0,0
2023,12,3,10,60,9,31.6,21.7,56.0,101325,0,0,0,0,0,0,0,0,0,0,0,14.0,0,0,9999,77777,9,999999999,0,0,0,99,0.2,0,0
2023,12,3,11,60,9,31.0,21.3,56.0,101325,0,0,0,0,0,0,0,0,0,0,0,15.3,0,0,9999,77777,9,999999999,0,0,0,99,0.2,0,0
2023,12,3,12,60,9,30.6,20.5,55.0,101325,0,0,0,0,0,0,0,0,0,0,0,13.6,0,0,9999,77777,9,999999999,0,0,0,99,0.2,0,0
2023,12,3,13,60,9,29.3,21.7,64.0,101325,0,0,0,0,0,0,0,0,0,0,0,16.0,0,0,9999,77777,9,999999999,0,0,0,99,0.2,0,0
2023,12,3,14,60,9,27.9,22.8,74.0,101325,0,0,0,0,0,0,0,0,0,0,0,17.0,0,0,9999,77777,9,999999999,0,0,0,99,0.2,0,0
2023,12,3,15,60,9,27.5,21.4,70.0,101325,0,0,0,0,0,0,0,0,0,0,0,16.7,0,0,9999,77777,9,999999999,0,0,0,99,0.2,0,0
2023,12,3,16,60,9,27.2,20.8,68.0,101325,0,0,0,0,0,0,0,0,0,0,0,16.5,0,0,9999,77777,9,999999999,0,0,0,99,0.2,0,0
2023,12,3,17,60,9,26.9,21.4,72.0,101325,0,0,0,0,0,0,0,0,0,0,0,15.3,0,0,9999,77777,9,999999999,0,0,0,99,0.2,0,0
2023,12,3,18,60,9,26.4,21.3,73.0,101325,0,0,0,0,0,0,0,0,0,0,0,9.4,0,0,9999,77777,9,999999999,0,0,0,99,0.2,0,0
2023,12,3,19,60,9,25.1,21.3,80.0,101325,0,0,0,0,0,0,0,0,0,0,0,6.6,0,0,9999,77777,9,999999999,0,0,0,99,0.2,0,0
2023,12,3,20,60,9,25.8,21.2,76.0,101325,0,0,0,0,0,0,0,0,0,0,0,4.4,0,0,9999,77777,9,999999999,0,0,0,99,0.2,0,0
2023,12,3,21,60,9,24.2,21.8,86.0,101325,0,0,0,0,0,0,0,0,0,0,0,5.7,0,0,9999,77777,9,999999999,0,0,0,99,0.2,0,0
2023,12,3,22,60,9,23.9,22.0,89.0,101325,0,0,0,0,0,0,0,0,0,0,0,5.1,0,0,9999,77777,9,999999999,0,0,0,99,0.2,0,0
2023,12,3,23,60,9,23.6,21.9,90.0,101325,0,0,0,0,0,0,0,0,0,0,0,4.5,0,0,9999,77777,9,999999999,0,0,0,99,0.2,0,0
2023,12,3,24,60,9,23.4,21.4,89.0,101325,0,0,0,0,0,0,0,0,0,0,0,4.2,0,0,9999,77777,9,999999999,0,0,0,99,0.2,0,0
2023,12,4,1,60,9,23.6,20.8,84.0,101325,0,0,0,0,0,0,0,0,0,0,0,6.6,0,0,9999,77777,9,999999999,0,0,0,99,0.2,0,0
2023,12,4,2,60,9,24.3,20.2,78.0,101325,0,0,0,0,0,0,0,0,0,0,0,2.9,0,0,9999,77777,9,999999999,0,0,0,99,0.2,0,0
2023,12,4,3,60,9,24.4,20.3,78.0,101325,0,0,0,0,0,0,0,0,0,0,0,9.9,0,0,9999,77777,9,999999999,0,0,0,99,0.2,0,0
2023,12,4,4,60,9,26.1,20.5,71.0,101325,0,0,0,0,0,0,0,0,0,0,0,8.7,0,0,9999,77777,9,999999999,0,0,0,99,0.2,0,0
2023,12,4,5,60,9,28.7,20.5,61.0,101325,0,0,0,0,0,0,0,0,0,0,0,6.1,0,0,9999,77777,9,999999999,0,0,0,99,0.2,0,0
2023,12,4,6,60,9,30.7,20.1,53.0,101325,0,0,0,0,0,0,0,0,0,0,0,4.9,0,0,9999,77777,9,999999999,0,0,0,99,0.2,0,0
2023,12,4,7,60,9,32.5,19.3,46.0,101325,0,0,0,0,0,0,0,0,0,0,0,5.4,0,0,9999,77777,9,999999999,0,0,0,99,0.2,0,0
2023,12,4,8,60,9,33.2,18.3,41.0,101325,0,0,0,0,0,0,0,0,0,0,0,6.3,0,0,9999,77777,9,999999999,0,0,0,99,0.2,0,0
2023,12,4,9,60,9,33.2,18.1,41.0,101325,0,0,0,0,0,0,0,0,0,0,0,9.4,0,0,9999,77777,9,999999999,0,0,0,99,0.2,0,0
2023,12,4,10,60,9,32.1,20.6,51.0,101325,0,0,0,0,0,0,0,0,0,0,0,15.3,0,0,9999,77777,9,999999999,0,0,0,99,0.2,0,0
2023,12,4,11,60,9,31.4,21.5,56.0,101325,0,0,0,0,0,0,0,0,0,0,0,18.7,0,0,9999,77777,9,999999999,0,0,0,99,0.2,0,0
2023,12,4,12,60,9,30.7,20.6,55.0,101325,0,0,0,0,0,0,0,0,0,0,0,15.3,0,0,9999,77777,9,999999999,0,0,0,99,0.2,0,0
2023,12,4,13,60,9,29.4,21.9,64.0,101325,0,0,0,0,0,0,0,0,0,0,0,15.2,0,0,9999,77777,9,999999999,0,0,0,99,0.2,0,0
2023,12,4,14,60,9,27.8,23.4,77.0,101325,0,0,0,0,0,0,0,0,0,0,0,18.2,0,0,9999,77777,9,999999999,0,0,0,99,0.2,0,0
2023,12,4,15,60,9,27.4,23.8,81.0,101325,0,0,0,0,0,0,0,0,0,0,0,19.7,0,0,9999,77777,9,999999999,0,0,0,99,0.2,0,0
2023,12,4,16,60,9,27.1,23.4,80.0,101325,0,0,0,0,0,0,0,0,0,0,0,18.9,0,0,9999,77777,9,999999999,0,0,0,99,0.2,0,0
2023,12,4,17,60,9,26.8,22.2,76.0,101325,0,0,0,0,0,0,0,0,0,0,0,16.6,0,0,9999,77777,9,999999999,0,0,0,99,0.2,0,0
2023,12,4,18,60,9,26.6,21.4,73.0,101325,0,0,0,0,0,0,0,0,0,0,0,13.7,0,0,9999,77777,9,999999999,0,0,0,99,0.2,0,0
2023,12,4,19,60,9,26.4,21.0,72.0,101325,0,0,0,0,0,0,0,0,0,0,0,13.7,0,0,9999,77777,9,999999999,0,0,0,99,0.2,0,0
2023,12,4,20,60,9,26.2,20.6,71.0,101325,0,0,0,0,0,0,0,0,0,0,0,11.6,0,0,9999,77777,9,999999999,0,0,0,99,0.2,0,0
2023,12,4,21,60,9,26.0,20.3,71.0,101325,0,0,0,0,0,0,0,0,0,0,0,9.4,0,0,9999,77777,9,999999999,0,0,0,99,0.2,0,0
2023,12,4,22,60,9,25.6,19.9,71.0,101325,0,0,0,0,0,0,0,0,0,0,0,10.4,0,0,9999,77777,9,999999999,0,0,0,99,0.2,0,0
2023,12,4,23,60,9,25.2,19.4,70.0,101325,0,0,0,0,0,0,0,0,0,0,0,10.1,0,0,9999,77777,9,999999999,0,0,0,99,0.2,0,0
2023,12,4,24,60,9,24.9,19.1,70.0,101325,0,0,0,0,0,0,0,0,0,0,0,10.2,0,0,9999,77777,9,999999999,0,0,0,99,0.2,0,0
2023,12,5,1,60,9,24.7,18.8,70.0,101325,0,0,0,0,0,0,0,0,0,0,0,11.2,0,0,9999,77777,9,999999999,0,0,0,99,0.2,0,0
2023,12,5,2,60,9,24.6,19.1,71.0,101325,0,0,0,0,0,0,0,0,0,0,0,9.7,0,0,9999,77777,9,999999999,0,0,0,99,0.2,0,0
2023,12,5,3,60,9,24.8,19.2,71.0,101325,0,0,0,0,0,0,0,0,0,0,0,9.4,0,0,9999,77777,9,999999999,0,0,0,99,0.2,0,0
2023,12,5,4,60,9,26.4,19.6,66.0,101325,0,0,0,0,0,0,0,0,0,0,0,8.9,0,0,9999,77777,9,999999999,0,0,0,99,0.2,0,0
2023,12,5,5,60,9,28.7,19.7,58.0,101325,0,0,0,0,0,0,0,0,0,0,0,9.8,0,0,9999,77777,9,999999999,0,0,0,99,0.2,0,0
2023,12,5,6,60,9,30.8,19.3,50.0,101325,0,0,0,0,0,0,0,0,0,0,0,7.4,0,0,9999,77777,9,999999999,0,0,0,99,0.2,0,0
2023,12,5,7,60,9,32.1,18.8,45.0,101325,0,0,0,0,0,0,0,0,0,0,0,4.7,0,0,9999,77777,9,999999999,0,0,0,99,0.2,0,0
2023,12,5,8,60,9,32.8,17.9,41.0,101325,0,0,0,0,0,0,0,0,0,0,0,4.5,0,0,9999,77777,9,999999999,0,0,0,99,0.2,0,0
2023,12,5,9,60,9,32.6,18.3,43.0,101325,0,0,0,0,0,0,0,0,0,0,0,9.7,0,0,9999,77777,9,999999999,0,0,0,99,0.2,0,0
2023,12,5,10,60,9,30.7,22.6,62.0,101325,0,0,0,0,0,0,0,0,0,0,0,17.6,0,0,9999,77777,9,999999999,0,0,0,99,0.2,0,0
2023,12,5,11,60,9,30.6,22.0,60.0,101325,0,0,0,0,0,0,0,0,0,0,0,19.4,0,0,9999,77777,9,999999999,0,0,0,99,0.2,0,0
2023,12,5,12,60,9,30.1,20.8,58.0,101325,0,0,0,0,0,0,0,0,0,0,0,18.9,0,0,9999,77777,9,999999999,0,0,0,99,0.2,0,0
2023,12,5,13,60,9,28.6,22.9,71.0,101325,0,0,0,0,0,0,0,0,0,0,0,18.7,0,0,9999,77777,9,999999999,0,0,0,99,0.2,0,0
2023,12,5,14,60,9,27.2,22.4,75.0,101325,0,0,0,0,0,0,0,0,0,0,0,18.2,0,0,9999,77777,9,999999999,0,0,0,99,0.2,0,0
2023,12,5,15,60,9,26.9,23.5,82.0,101325,0,0,0,0,0,0,0,0,0,0,0,18.7,0,0,9999,77777,9,999999999,0,0,0,99,0.2,0,0
2023,12,5,16,60,9,26.7,22.5,78.0,101325,0,0,0,0,0,0,0,0,0,0,0,17.5,0,0,9999,77777,9,999999999,0,0,0,99,0.2,0,0
2023,12,5,17,60,9,26.8,21.0,71.0,101325,0,0,0,0,0,0,0,0,0,0,0,14.9,0,0,9999,77777,9,999999999,0,0,0,99,0.2,0,0
2023,12,5,18,60,9,26.7,19.9,67.0,101325,0,0,0,0,0,0,0,0,0,0,0,13.9,0,0,9999,77777,9,999999999,0,0,0,99,0.2,0,0
2023,12,5,19,60,9,26.1,19.2,66.0,101325,0,0,0,0,0,0,0,0,0,0,0,10.8,0,0,9999,77777,9,999999999,0,0,0,99,0.2,0,0
2023,12,5,20,60,9,25.5,18.5,65.0,101325,0,0,0,0,0,0,0,0,0,0,0,8.7,0,0,9999,77777,9,999999999,0,0,0,99,0.2,0,0
2023,12,5,21,60,9,24.8,18.2,67.0,101325,0,0,0,0,0,0,0,0,0,0,0,6.9,0,0,9999,77777,9,999999999,0,0,0,99,0.2,0,0
2023,12,5,22,60,9,24.4,18.2,69.0,101325,0,0,0,0,0,0,0,0,0,0,0,6.9,0,0,9999,77777,9,999999999,0,0,0,99,0.2,0,0
2023,12,5,23,60,9,24.0,18.3,70.0,101325,0,0,0,0,0,0,0,0,0,0,0,7.9,0,0,9999,77777,9,999999999,0,0,0,99,0.2,0,0
2023,12,5,24,60,9,23.7,18.5,72.0,101325,0,0,0,0,0,0,0,0,0,0,0,8.5,0,0,9999,77777,9,999999999,0,0,0,99,0.2,0,0
2023,12,6,1,60,9,23.2,18.6,76.0,101325,0,0,0,0,0,0,0,0,0,0,0,6.7,0,0,9999,77777,9,999999999,0,0,0,99,0.2,0,0
2023,12,6,2,60,9,23.0,18.8,77.0,101325,0,0,0,0,0,0,0,0,0,0,0,5.4,0,0,9999,77777,9,999999999,0,0,0,99,0.2,0,0
2023,12,6,3,60,9,23.2,19.0,77.0,101325,0,0,0,0,0,0,0,0,0,0,0,5.4,0,0,9999,77777,9,999999999,0,0,0,99,0.2,0,0
2023,12,6,4,60,9,24.8,19.4,72.0,101325,0,0,0,0,0,0,0,0,0,0,0,6.9,0,0,9999,77777,9,999999999,0,0,0,99,0.2,0,0
2023,12,6,5,60,9,27.0,19.7,64.0,101325,0,0,0,0,0,0,0,0,0,0,0,7.4,0,0,9999,77777,9,999999999,0,0,0,99,0.2,0,0
2023,12,6,6,60,9,29.0,19.5,57.0,101325,0,0,0,0,0,0,0,0,0,0,0,5.8,0,0,9999,77777,9,999999999,0,0,0,99,0.2,0,0
2023,12,6,7,60,9,30.5,19.1,51.0,101325,0,0,0,0,0,0,0,0,0,0,0,2.5,0,0,9999,77777,9,999999999,0,0,0,99,0.2,0,0
2023,12,6,8,60,9,31.3,18.2,46.0,101325,0,0,0,0,0,0,0,0,0,0,0,2.6,0,0,9999,77777,9,999999999,0,0,0,99,0.2,0,0
2023,12,6,9,60,9,31.5,18.2,45.0,101325,0,0,0,0,0,0,0,0,0,0,0,7.6,0,0,9999,77777,9,999999999,0,0,0,99,0.2,0,0
2023,12,6,10,60,9,30.2,21.3,59.0,101325,0,0,0,0,0,0,0,0,0,0,0,14.0,0,0,9999,77777,9,999999999,0,0,0,99,0.2,0,0
2023,12,6,11,60,9,29.3,21.6,63.0,101325,0,0,0,0,0,0,0,0,0,0,0,16.5,0,0,9999,77777,9,999999999,0,0,0,99,0.2,0,0
2023,12,6,12,60,9,28.8,19.9,59.0,101325,0,0,0,0,0,0,0,0,0,0,0,16.6,0,0,9999,77777,9,999999999,0,0,0,99,0.2,0,0
2023,12,6,13,60,9,28.0,21.1,66.0,101325,0,0,0,0,0,0,0,0,0,0,0,15.5,0,0,9999,77777,9,999999999,0,0,0,99,0.2,0,0
2023,12,6,14,60,9,26.7,22.0,76.0,101325,0,0,0,0,0,0,0,0,0,0,0,18.2,0,0,9999,77777,9,999999999,0,0,0,99,0.2,0,0
2023,12,6,15,60,9,26.4,21.7,75.0,101325,0,0,0,0,0,0,0,0,0,0,0,18.8,0,0,9999,77777,9,999999999,0,0,0,99,0.2,0,0
2023,12,6,16,60,9,26.3,20.7,71.0,101325,0,0,0,0,0,0,0,0,0,0,0,16.8,0,0,9999,77777,9,999999999,0,0,0,99,0.2,0,0
2023,12,6,17,60,9,26.1,19.9,68.0,101325,0,0,0,0,0,0,0,0,0,0,0,16.3,0,0,9999,77777,9,999999999,0,0,0,99,0.2,0,0
2023,12,6,18,60,9,25.6,19.3,68.0,101325,0,0,0,0,0,0,0,0,0,0,0,13.3,0,0,9999,77777,9,999999999,0,0,0,99,0.2,0,0
2023,12,6,19,60,9,25.1,18.8,68.0,101325,0,0,0,0,0,0,0,0,0,0,0,9.6,0,0,9999,77777,9,999999999,0,0,0,99,0.2,0,0
2023,12,6,20,60,9,24.5,18.6,69.0,101325,0,0,0,0,0,0,0,0,0,0,0,6.9,0,0,9999,77777,9,999999999,0,0,0,99,0.2,0,0
2023,12,6,21,60,9,23.7,18.4,72.0,101325,0,0,0,0,0,0,0,0,0,0,0,5.7,0,0,9999,77777,9,999999999,0,0,0,99,0.2,0,0
2023,12,6,22,60,9,23.4,18.3,73.0,101325,0,0,0,0,0,0,0,0,0,0,0,7.4,0,0,9999,77777,9,999999999,0,0,0,99,0.2,0,0
2023,12,6,23,60,9,22.9,18.2,75.0,101325,0,0,0,0,0,0,0,0,0,0,0,7.7,0,0,9999,77777,9,999999999,0,0,0,99,0.2,0,0
2023,12,6,24,60,9,22.5,18.2,76.0,101325,0,0,0,0,0,0,0,0,0,0,0,8.7,0,0,9999,77777,9,999999999,0,0,0,99,0.2,0,0
2023,12,7,1,60,9,22.3,18.2,78.0,101325,0,0,0,0,0,0,0,0,0,0,0,9.4,0,0,9999,77777,9,999999999,0,0,0,99,0.2,0,0
2023,12,7,2,60,9,22.5,18.1,76.0,101325,0,0,0,0,0,0,0,0,0,0,0,9.7,0,0,9999,77777,9,999999999,0,0,0,99,0.2,0,0
2023,12,7,3,60,9,22.5,18.3,77.0,101325,0,0,0,0,0,0,0,0,0,0,0,10.1,0,0,9999,77777,9,999999999,0,0,0,99,0.2,0,0
2023,12,7,4,60,9,24.1,18.9,73.0,101325,0,0,0,0,0,0,0,0,0,0,0,8.9,0,0,9999,77777,9,999999999,0,0,0,99,0.2,0,0
2023,12,7,5,60,9,26.8,19.3,64.0,101325,0,0,0,0,0,0,0,0,0,0,0,9.2,0,0,9999,77777,9,999999999,0,0,0,99,0.2,0,0
2023,12,7,6,60,9,29.1,18.8,54.0,101325,0,0,0,0,0,0,0,0,0,0,0,7.6,0,0,9999,77777,9,999999999,0,0,0,99,0.2,0,0
2023,12,7,7,60,9,30.5,17.9,47.0,101325,0,0,0,0,0,0,0,0,0,0,0,4.7,0,0,9999,77777,9,999999999,0,0,0,99,0.2,0,0
2023,12,7,8,60,9,31.3,16.7,42.0,101325,0,0,0,0,0,0,0,0,0,0,0,1.8,0,0,9999,77777,9,999999999,0,0,0,99,0.2,0,0
2023,12,7,9,60,9,31.2,17.5,44.0,101325,0,0,0,0,0,0,0,0,0,0,0,9.7,0,0,9999,77777,9,999999999,0,0,0,99,0.2,0,0
2023,12,7,10,60,9,29.8,20.6,58.0,101325,0,0,0,0,0,0,0,0,0,0,0,15.3,0,0,9999,77777,9,999999999,0,0,0,99,0.2,0,0
2023,12,7,11,60,9,29.0,20.2,59.0,101325,0,0,0,0,0,0,0,0,0,0,0,16.1,0,0,9999,77777,9,999999999,0,0,0,99,0.2,0,0
2023,12,7,12,60,9,28.4,20.0,61.0,101325,0,0,0,0,0,0,0,0,0,0,0,15.0,0,0,9999,77777,9,999999999,0,0,0,99,0.2,0,0
2023,12,7,13,60,9,27.5,20.9,67.0,101325,0,0,0,0,0,0,0,0,0,0,0,15.9,0,0,9999,77777,9,999999999,0,0,0,99,0.2,0,0
2023,12,7,14,60,9,26.6,21.1,72.0,101325,0,0,0,0,0,0,0,0,0,0,0,16.8,0,0,9999,77777,9,999999999,0,0,0,99,0.2,0,0
2023,12,7,15,60,9,26.1,21.6,76.0,101325,0,0,0,0,0,0,0,0,0,0,0,17.0,0,0,9999,77777,9,999999999,0,0,0,99,0.2,0,0
2023,12,7,16,60,9,25.7,20.3,72.0,101325,0,0,0,0,0,0,0,0,0,0,0,17.5,0,0,9999,77777,9,999999999,0,0,0,99,0.2,0,0
2023,12,7,17,60,9,25.2,20.4,75.0,101325,0,0,0,0,0,0,0,0,0,0,0,14.1,0,0,9999,77777,9,999999999,0,0,0,99,0.2,0,0
2023,12,7,18,60,9,24.6,19.9,75.0,101325,0,0,0,0,0,0,0,0,0,0,0,13.4,0,0,9999,77777,9,999999999,0,0,0,99,0.2,0,0
2023,12,7,19,60,9,24.3,19.1,73.0,101325,0,0,0,0,0,0,0,0,0,0,0,12.2,0,0,9999,77777,9,999999999,0,0,0,99,0.2,0,0
2023,12,7,20,60,9,23.9,18.5,72.0,101325,0,0,0,0,0,0,0,0,0,0,0,10.5,0,0,9999,77777,9,999999999,0,0,0,99,0.2,0,0
2023,12,7,21,60,9,23.2,18.2,73.0,101325,0,0,0,0,0,0,0,0,0,0,0,6.3,0,0,9999,77777,9,999999999,0,0,0,99,0.2,0,0
2023,12,7,22,60,9,22.1,18.1,78.0,101325,0,0,0,0,0,0,0,0,0,0,0,6.0,0,0,9999,77777,9,999999999,0,0,0,99,0.2,0,0
2023,12,7,23,60,9,21.9,17.8,78.0,101325,0,0,0,0,0,0,0,0,0,0,0,6.2,0,0,9999,77777,9,999999999,0,0,0,99,0.2,0,0
2023,12,7,24,60,9,21.5,17.4,77.0,101325,0,0,0,0,0,0,0,0,0,0,0,7.6,0,0,9999,77777,9,999999999,0,0,0,99,0.2,0,0
2023,12,8,1,60,9,21.2,16.7,76.0,101325,0,0,0,0,0,0,0,0,0,0,0,8.4,0,0,9999,77777,9,999999999,0,0,0,99,0.2,0,0
2023,12,8,2,60,9,21.4,17.7,79.0,101325,0,0,0,0,0,0,0,0,0,0,0,7.4,0,0,9999,77777,9,999999999,0,0,0,99,0.2,0,0
2023,12,8,3,60,9,21.6,17.3,77.0,101325,0,0,0,0,0,0,0,0,0,0,0,8.7,0,0,9999,77777,9,999999999,0,0,0,99,0.2,0,0
2023,12,8,4,60,9,23.6,17.9,70.0,101325,0,0,0,0,0,0,0,0,0,0,0,8.7,0,0,9999,77777,9,999999999,0,0,0,99,0.2,0,0
2023,12,8,5,60,9,26.7,18.7,62.0,101325,0,0,0,0,0,0,0,0,0,0,0,6.2,0,0,9999,77777,9,999999999,0,0,0,99,0.2,0,0
2023,12,8,6,60,9,29.3,18.8,53.0,101325,0,0,0,0,0,0,0,0,0,0,0,6.6,0,0,9999,77777,9,999999999,0,0,0,99,0.2,0,0
2023,12,8,7,60,9,30.9,18.1,46.0,101325,0,0,0,0,0,0,0,0,0,0,0,5.0,0,0,9999,77777,9,999999999,0,0,0,99,0.2,0,0
2023,12,8,8,60,9,31.6,16.9,41.0,101325,0,0,0,0,0,0,0,0,0,0,0,2.3,0,0,9999,77777,9,999999999,0,0,0,99,0.2,0,0
2023,12,8,9,60,9,31.8,16.9,41.0,101325,0,0,0,0,0,0,0,0,0,0,0,5.9,0,0,9999,77777,9,999999999,0,0,0,99,0.2,0,0
2023,12,8,10,60,9,31.0,20.1,52.0,101325,0,0,0,0,0,0,0,0,0,0,0,12.5,0,0,9999,77777,9,999999999,0,0,0,99,0.2,0,0
2023,12,8,11,60,9,30.1,21.2,59.0,101325,0,0,0,0,0,0,0,0,0,0,0,13.6,0,0,9999,77777,9,999999999,0,0,0,99,0.2,0,0
2023,12,8,12,60,9,29.1,21.0,62.0,101325,0,0,0,0,0,0,0,0,0,0,0,15.3,0,0,9999,77777,9,999999999,0,0,0,99,0.2,0,0
2023,12,8,13,60,9,27.7,20.7,66.0,101325,0,0,0,0,0,0,0,0,0,0,0,15.7,0,0,9999,77777,9,999999999,0,0,0,99,0.2,0,0
2023,12,8,14,60,9,26.8,21.3,72.0,101325,0,0,0,0,0,0,0,0,0,0,0,18.8,0,0,9999,77777,9,999999999,0,0,0,99,0.2,0,0
2023,12,8,15,60,9,26.4,20.8,71.0,101325,0,0,0,0,0,0,0,0,0,0,0,17.5,0,0,9999,77777,9,999999999,0,0,0,99,0.2,0,0
2023,12,8,16,60,9,26.1,20.0,69.0,101325,0,0,0,0,0,0,0,0,0,0,0,16.6,0,0,9999,77777,9,999999999,0,0,0,99,0.2,0,0
2023,12,8,17,60,9,25.6,19.6,69.0,101325,0,0,0,0,0,0,0,0,0,0,0,16.9,0,0,9999,77777,9,999999999,0,0,0,99,0.2,0,0
2023,12,8,18,60,9,25.4,18.7,67.0,101325,0,0,0,0,0,0,0,0,0,0,0,14.0,0,0,9999,77777,9,999999999,0,0,0,99,0.2,0,0
2023,12,8,19,60,9,24.7,18.5,68.0,101325,0,0,0,0,0,0,0,0,0,0,0,8.0,0,0,9999,77777,9,999999999,0,0,0,99,0.2,0,0
2023,12,8,20,60,9,24.2,18.1,69.0,101325,0,0,0,0,0,0,0,0,0,0,0,7.3,0,0,9999,77777,9,999999999,0,0,0,99,0.2,0,0
2023,12,8,21,60,9,23.8,17.7,69.0,101325,0,0,0,0,0,0,0,0,0,0,0,6.4,0,0,9999,77777,9,999999999,0,0,0,99,0.2,0,0
2023,12,8,22,60,9,22.6,17.4,72.0,101325,0,0,0,0,0,0,0,0,0,0,0,6.4,0,0,9999,77777,9,999999999,0,0,0,99,0.2,0,0
2023,12,8,23,60,9,22.3,16.8,71.0,101325,0,0,0,0,0,0,0,0,0,0,0,5.9,0,0,9999,77777,9,999999999,0,0,0,99,0.2,0,0
2023,12,8,24,60,9,22.1,16.4,70.0,101325,0,0,0,0,0,0,0,0,0,0,0,7.9,0,0,9999,77777,9,999999999,0,0,0,99,0.2,0,0
2023,12,9,1,60,9,21.5,16.4,73.0,101325,0,0,0,0,0,0,0,0,0,0,0,8.9,0,0,9999,77777,9,999999999,0,0,0,99,0.2,0,0
2023,12,9,2,60,9,21.5,17.5,78.0,101325,0,0,0,0,0,0,0,0,0,0,0,7.1,0,0,9999,77777,9,999999999,0,0,0,99,0.2,0,0
2023,12,9,3,60,9,21.6,17.6,78.0,101325,0,0,0,0,0,0,0,0,0,0,0,7.2,0,0,9999,77777,9,999999999,0,0,0,99,0.2,0,0
2023,12,9,4,60,9,23.6,17.8,70.0,101325,0,0,0,0,0,0,0,0,0,0,0,6.9,0,0,9999,77777,9,999999999,0,0,0,99,0.2,0,0
2023,12,9,5,60,9,26.4,17.8,59.0,101325,0,0,0,0,0,0,0,0,0,0,0,7.4,0,0,9999,77777,9,999999999,0,0,0,99,0.2,0,0
2023,12,9,6,60,9,29.1,17.8,50.0,101325,0,0,0,0,0,0,0,0,0,0,0,7.2,0,0,9999,77777,9,999999999,0,0,0,99,0.2,0,0
2023,12,9,7,60,9,31.2,17.3,43.0,101325,0,0,0,0,0,0,0,0,0,0,0,5.7,0,0,9999,77777,9,999999999,0,0,0,99,0.2,0,0
2023,12,9,8,60,9,32.0,16.7,40.0,101325,0,0,0,0,0,0,0,0,0,0,0,2.3,0,0,9999,77777,9,999999999,0,0,0,99,0.2,0,0
2023,12,9,9,60,9,32.4,16.4,38.0,101325,0,0,0,0,0,0,0,0,0,0,0,5.1,0,0,9999,77777,9,999999999,0,0,0,99,0.2,0,0
2023,12,9,10,60,9,31.3,20.3,52.0,101325,0,0,0,0,0,0,0,0,0,0,0,14.7,0,0,9999,77777,9,999999999,0,0,0,99,0.2,0,0
2023,12,9,11,60,9,30.5,21.2,58.0,101325,0,0,0,0,0,0,0,0,0,0,0,17.3,0,0,9999,77777,9,999999999,0,0,0,99,0.2,0,0
2023,12,9,12,60,9,29.3,20.6,59.0,101325,0,0,0,0,0,0,0,0,0,0,0,18.3,0,0,9999,77777,9,999999999,0,0,0,99,0.2,0,0
2023,12,9,13,60,9,28.0,20.7,65.0,101325,0,0,0,0,0,0,0,0,0,0,0,15.5,0,0,9999,77777,9,999999999,0,0,0,99,0.2,0,0
2023,12,9,14,60,9,27.0,20.4,67.0,101325,0,0,0,0,0,0,0,0,0,0,0,18.1,0,0,9999,77777,9,999999999,0,0,0,99,0.2,0,0
2023,12,9,15,60,9,26.6,20.5,69.0,101325,0,0,0,0,0,0,0,0,0,0,0,18.4,0,0,9999,77777,9,999999999,0,0,0,99,0.2,0,0
2023,12,9,16,60,9,26.1,20.4,71.0,101325,0,0,0,0,0,0,0,0,0,0,0,17.2,0,0,9999,77777,9,999999999,0,0,0,99,0.2,0,0
2023,12,9,17,60,9,25.9,18.5,64.0,101325,0,0,0,0,0,0,0,0,0,0,0,15.7,0,0,9999,77777,9,999999999,0,0,0,99,0.2,0,0
2023,12,9,18,60,9,25.6,17.2,60.0,101325,0,0,0,0,0,0,0,0,0,0,0,12.3,0,0,9999,77777,9,999999999,0,0,0,99,0.2,0,0
2023,12,9,19,60,9,24.9,16.8,61.0,101325,0,0,0,0,0,0,0,0,0,0,0,8.7,0,0,9999,77777,9,999999999,0,0,0,99,0.2,0,0
2023,12,9,20,60,9,24.0,16.5,63.0,101325,0,0,0,0,0,0,0,0,0,0,0,6.4,0,0,9999,77777,9,999999999,0,0,0,99,0.2,0,0
2023,12,9,21,60,9,22.3,16.7,71.0,101325,0,0,0,0,0,0,0,0,0,0,0,8.1,0,0,9999,77777,9,999999999,0,0,0,99,0.2,0,0
2023,12,9,22,60,9,21.8,16.5,72.0,101325,0,0,0,0,0,0,0,0,0,0,0,7.1,0,0,9999,77777,9,999999999,0,0,0,99,0.2,0,0
2023,12,9,23,60,9,21.8,16.3,71.0,101325,0,0,0,0,0,0,0,0,0,0,0,5.7,0,0,9999,77777,9,999999999,0,0,0,99,0.2,0,0
2023,12,9,24,60,9,21.9,16.2,70.0,101325,0,0,0,0,0,0,0,0,0,0,0,7.6,0,0,9999,77777,9,999999999,0,0,0,99,0.2,0,0
2023,12,10,1,60,9,21.8,16.2,71.0,101325,0,0,0,0,0,0,0,0,0,0,0,9.2,0,0,9999,77777,9,999999999,0,0,0,99,0.2,0,0
2023,12,10,2,60,9,22.1,16.5,71.0,101325,0,0,0,0,0,0,0,0,0,0,0,7.9,0,0,9999,77777,9,999999999,0,0,0,99,0.2,0,0
2023,12,10,3,60,9,22.3,16.7,70.0,101325,0,0,0,0,0,0,0,0,0,0,0,9.4,0,0,9999,77777,9,999999999,0,0,0,99,0.2,0,0
2023,12,10,4,60,9,24.2,17.4,66.0,101325,0,0,0,0,0,0,0,0,0,0,0,9.9,0,0,9999,77777,9,999999999,0,0,0,99,0.2,0,0
2023,12,10,5,60,9,27.0,18.3,59.0,101325,0,0,0,0,0,0,0,0,0,0,0,8.1,0,0,9999,77777,9,999999999,0,0,0,99,0.2,0,0
2023,12,10,6,60,9,29.8,18.0,49.0,101325,0,0,0,0,0,0,0,0,0,0,0,8.0,0,0,9999,77777,9,999999999,0,0,0,99,0.2,0,0
2023,12,10,7,60,9,31.4,18.1,45.0,101325,0,0,0,0,0,0,0,0,0,0,0,5.9,0,0,9999,77777,9,999999999,0,0,0,99,0.2,0,0
2023,12,10,8,60,9,32.5,17.9,42.0,101325,0,0,0,0,0,0,0,0,0,0,0,1.8,0,0,9999,77777,9,999999999,0,0,0,99,0.2,0,0
2023,12,10,9,60,9,32.8,17.8,41.0,101325,0,0,0,0,0,0,0,0,0,0,0,5.4,0,0,9999,77777,9,999999999,0,0,0,99,0.2,0,0
2023,12,10,10,60,9,32.1,19.2,46.0,101325,0,0,0,0,0,0,0,0,0,0,0,11.8,0,0,9999,77777,9,999999999,0,0,0,99,0.2,0,0
2023,12,10,11,60,9,31.2,20.6,53.0,101325,0,0,0,0,0,0,0,0,0,0,0,13.2,0,0,9999,77777,9,999999999,0,0,0,99,0.2,0,0
2023,12,10,12,60,9,29.9,20.8,58.0,101325,0,0,0,0,0,0,0,0,0,0,0,13.8,0,0,9999,77777,9,999999999,0,0,0,99,0.2,0,0
2023,12,10,13,60,9,28.2,21.2,66.0,101325,0,0,0,0,0,0,0,0,0,0,0,13.8,0,0,9999,77777,9,999999999,0,0,0,99,0.2,0,0
2023,12,10,14,60,9,26.9,21.5,73.0,101325,0,0,0,0,0,0,0,0,0,0,0,16.3,0,0,9999,77777,9,999999999,0,0,0,99,0.2,0,0
2023,12,10,15,60,9,26.8,20.5,68.0,101325,0,0,0,0,0,0,0,0,0,0,0,15.6,0,0,9999,77777,9,999999999,0,0,0,99,0.2,0,0
2023,12,10,16,60,9,26.5,20.9,71.0,101325,0,0,0,0,0,0,0,0,0,0,0,14.8,0,0,9999,77777,9,999999999,0,0,0,99,0.2,0,0
2023,12,10,17,60,9,26.2,19.2,66.0,101325,0,0,0,0,0,0,0,0,0,0,0,12.3,0,0,9999,77777,9,999999999,0,0,0,99,0.2,0,0
2023,12,10,18,60,9,26.0,17.7,60.0,101325,0,0,0,0,0,0,0,0,0,0,0,11.5,0,0,9999,77777,9,999999999,0,0,0,99,0.2,0,0
2023,12,10,19,60,9,25.7,16.5,57.0,101325,0,0,0,0,0,0,0,0,0,0,0,11.6,0,0,9999,77777,9,999999999,0,0,0,99,0.2,0,0
2023,12,10,20,60,9,24.9,16.5,59.0,101325,0,0,0,0,0,0,0,0,0,0,0,8.1,0,0,9999,77777,9,999999999,0,0,0,99,0.2,0,0
2023,12,10,21,60,9,23.5,16.6,65.0,101325,0,0,0,0,0,0,0,0,0,0,0,7.8,0,0,9999,77777,9,999999999,0,0,0,99,0.2,0,0
2023,12,10,22,60,9,23.1,16.2,65.0,101325,0,0,0,0,0,0,0,0,0,0,0,7.3,0,0,9999,77777,9,999999999,0,0,0,99,0.2,0,0
2023,12,10,23,60,9,23.2,15.9,64.0,101325,0,0,0,0,0,0,0,0,0,0,0,6.4,0,0,9999,77777,9,999999999,0,0,0,99,0.2,0,0
2023,12,10,24,60,9,22.2,16.2,69.0,101325,0,0,0,0,0,0,0,0,0,0,0,6.5,0,0,9999,77777,9,999999999,0,0,0,99,0.2,0,0
2023,12,11,1,60,9,21.1,16.4,75.0,101325,0,0,0,0,0,0,0,0,0,0,0,8.1,0,0,9999,77777,9,999999999,0,0,0,99,0.2,0,0
2023,12,11,2,60,9,22.0,16.5,71.0,101325,0,0,0,0,0,0,0,0,0,0,0,6.1,0,0,9999,77777,9,999999999,0,0,0,99,0.2,0,0
2023,12,11,3,60,9,22.2,16.5,70.0,101325,0,0,0,0,0,0,0,0,0,0,0,8.9,0,0,9999,77777,9,999999999,0,0,0,99,0.2,0,0
2023,12,11,4,60,9,24.4,17.4,65.0,101325,0,0,0,0,0,0,0,0,0,0,0,10.2,0,0,9999,77777,9,999999999,0,0,0,99,0.2,0,0
2023,12,11,5,60,9,27.3,18.1,57.0,101325,0,0,0,0,0,0,0,0,0,0,0,7.9,0,0,9999,77777,9,999999999,0,0,0,99,0.2,0,0
2023,12,11,6,60,9,30.1,17.8,48.0,101325,0,0,0,0,0,0,0,0,0,0,0,6.0,0,0,9999,77777,9,999999999,0,0,0,99,0.2,0,0
2023,12,11,7,60,9,31.7,16.4,40.0,101325,0,0,0,0,0,0,0,0,0,0,0,6.2,0,0,9999,77777,9,999999999,0,0,0,99,0.2,0,0
2023,12,11,8,60,9,32.2,16.7,40.0,101325,0,0,0,0,0,0,0,0,0,0,0,8.7,0,0,9999,77777,9,999999999,0,0,0,99,0.2,0,0
2023,12,11,9,60,9,32.0,18.4,44.0,101325,0,0,0,0,0,0,0,0,0,0,0,12.5,0,0,9999,77777,9,999999999,0,0,0,99,0.2,0,0
2023,12,11,10,60,9,31.3,19.3,49.0,101325,0,0,0,0,0,0,0,0,0,0,0,16.2,0,0,9999,77777,9,999999999,0,0,0,99,0.2,0,0
2023,12,11,11,60,9,30.7,18.7,49.0,101325,0,0,0,0,0,0,0,0,0,0,0,16.6,0,0,9999,77777,9,999999999,0,0,0,99,0.2,0,0
2023,12,11,12,60,9,29.7,18.3,50.0,101325,0,0,0,0,0,0,0,0,0,0,0,16.1,0,0,9999,77777,9,999999999,0,0,0,99,0.2,0,0
2023,12,11,13,60,9,28.3,19.8,60.0,101325,0,0,0,0,0,0,0,0,0,0,0,14.3,0,0,9999,77777,9,999999999,0,0,0,99,0.2,0,0
2023,12,11,14,60,9,27.2,19.5,63.0,101325,0,0,0,0,0,0,0,0,0,0,0,15.6,0,0,9999,77777,9,999999999,0,0,0,99,0.2,0,0
2023,12,11,15,60,9,26.7,17.9,59.0,101325,0,0,0,0,0,0,0,0,0,0,0,14.9,0,0,9999,77777,9,999999999,0,0,0,99,0.2,0,0
2023,12,11,16,60,9,26.1,17.8,60.0,101325,0,0,0,0,0,0,0,0,0,0,0,14.2,0,0,9999,77777,9,999999999,0,0,0,99,0.2,0,0
2023,12,11,17,60,9,25.8,16.5,56.0,101325,0,0,0,0,0,0,0,0,0,0,0,14.5,0,0,9999,77777,9,999999999,0,0,0,99,0.2,0,0
2023,12,11,18,60,9,25.2,16.3,58.0,101325,0,0,0,0,0,0,0,0,0,0,0,11.5,0,0,9999,77777,9,999999999,0,0,0,99,0.2,0,0
2023,12,11,19,60,9,24.3,15.4,58.0,101325,0,0,0,0,0,0,0,0,0,0,0,8.2,0,0,9999,77777,9,999999999,0,0,0,99,0.2,0,0
2023,12,11,20,60,9,23.2,14.8,59.0,101325,0,0,0,0,0,0,0,0,0,0,0,6.9,0,0,9999,77777,9,999999999,0,0,0,99,0.2,0,0
2023,12,11,21,60,9,21.8,15.2,66.0,101325,0,0,0,0,0,0,0,0,0,0,0,7.8,0,0,9999,77777,9,999999999,0,0,0,99,0.2,0,0
2023,12,11,22,60,9,21.3,15.3,69.0,101325,0,0,0,0,0,0,0,0,0,0,0,7.3,0,0,9999,77777,9,999999999,0,0,0,99,0.2,0,0
2023,12,11,23,60,9,21.0,15.4,70.0,101325,0,0,0,0,0,0,0,0,0,0,0,6.8,0,0,9999,77777,9,999999999,0,0,0,99,0.2,0,0
2023,12,11,24,60,9,21.0,15.5,71.0,101325,0,0,0,0,0,0,0,0,0,0,0,6.1,0,0,9999,77777,9,999999999,0,0,0,99,0.2,0,0
2023,12,12,1,60,9,20.4,15.8,75.0,101325,0,0,0,0,0,0,0,0,0,0,0,7.1,0,0,9999,77777,9,999999999,0,0,0,99,0.2,0,0
2023,12,12,2,60,9,21.8,16.6,72.0,101325,0,0,0,0,0,0,0,0,0,0,0,6.8,0,0,9999,77777,9,999999999,0,0,0,99,0.2,0,0
2023,12,12,3,60,9,21.9,17.2,75.0,101325,0,0,0,0,0,0,0,0,0,0,0,6.1,0,0,9999,77777,9,999999999,0,0,0,99,0.2,0,0
2023,12,12,4,60,9,23.7,17.8,69.0,101325,0,0,0,0,0,0,0,0,0,0,0,5.9,0,0,9999,77777,9,999999999,0,0,0,99,0.2,0,0
2023,12,12,5,60,9,26.3,18.2,61.0,101325,0,0,0,0,0,0,0,0,0,0,0,5.7,0,0,9999,77777,9,999999999,0,0,0,99,0.2,0,0
2023,12,12,6,60,9,29.0,18.1,52.0,101325,0,0,0,0,0,0,0,0,0,0,0,6.3,0,0,9999,77777,9,999999999,0,0,0,99,0.2,0,0
2023,12,12,7,60,9,30.8,16.6,43.0,101325,0,0,0,0,0,0,0,0,0,0,0,8.1,0,0,9999,77777,9,999999999,0,0,0,99,0.2,0,0
2023,12,12,8,60,9,31.3,16.8,42.0,101325,0,0,0,0,0,0,0,0,0,0,0,9.9,0,0,9999,77777,9,999999999,0,0,0,99,0.2,0,0
2023,12,12,9,60,9,31.1,17.1,43.0,101325,0,0,0,0,0,0,0,0,0,0,0,14.7,0,0,9999,77777,9,999999999,0,0,0,99,0.2,0,0
2023,12,12,10,60,9,30.4,16.6,43.0,101325,0,0,0,0,0,0,0,0,0,0,0,18.7,0,0,9999,77777,9,999999999,0,0,0,99,0.2,0,0
2023,12,12,11,60,9,29.7,16.1,44.0,101325,0,0,0,0,0,0,0,0,0,0,0,18.8,0,0,9999,77777,9,999999999,0,0,0,99,0.2,0,0
2023,12,12,12,60,9,28.9,16.4,47.0,101325,0,0,0,0,0,0,0,0,0,0,0,16.9,0,0,9999,77777,9,999999999,0,0,0,99,0.2,0,0
2023,12,12,13,60,9,27.4,17.1,53.0,101325,0,0,0,0,0,0,0,0,0,0,0,16.3,0,0,9999,77777,9,999999999,0,0,0,99,0.2,0,0
2023,12,12,14,60,9,26.1,16.6,56.0,101325,0,0,0,0,0,0,0,0,0,0,0,17.1,0,0,9999,77777,9,999999999,0,0,0,99,0.2,0,0
2023,12,12,15,60,9,25.6,16.2,56.0,101325,0,0,0,0,0,0,0,0,0,0,0,15.8,0,0,9999,77777,9,999999999,0,0,0,99,0.2,0,0
2023,12,12,16,60,9,25.1,15.3,54.0,101325,0,0,0,0,0,0,0,0,0,0,0,14.7,0,0,9999,77777,9,999999999,0,0,0,99,0.2,0,0
2023,12,12,17,60,9,24.5,14.7,54.0,101325,0,0,0,0,0,0,0,0,0,0,0,13.3,0,0,9999,77777,9,999999999,0,0,0,99,0.2,0,0
2023,12,12,18,60,9,23.5,13.6,54.0,101325,0,0,0,0,0,0,0,0,0,0,0,7.9,0,0,9999,77777,9,999999999,0,0,0,99,0.2,0,0
2023,12,12,19,60,9,21.7,13.6,60.0,101325,0,0,0,0,0,0,0,0,0,0,0,7.9,0,0,9999,77777,9,999999999,0,0,0,99,0.2,0,0
2023,12,12,20,60,9,21.0,13.7,63.0,101325,0,0,0,0,0,0,0,0,0,0,0,8.5,0,0,9999,77777,9,999999999,0,0,0,99,0.2,0,0
2023,12,12,21,60,9,20.7,13.7,64.0,101325,0,0,0,0,0,0,0,0,0,0,0,8.1,0,0,9999,77777,9,999999999,0,0,0,99,0.2,0,0
2023,12,12,22,60,9,21.7,13.5,59.0,101325,0,0,0,0,0,0,0,0,0,0,0,5.3,0,0,9999,77777,9,999999999,0,0,0,99,0.2,0,0
2023,12,12,23,60,9,19.8,14.2,70.0,101325,0,0,0,0,0,0,0,0,0,0,0,6.9,0,0,9999,77777,9,999999999,0,0,0,99,0.2,0,0
2023,12,12,24,60,9,20.3,15.5,74.0,101325,0,0,0,0,0,0,0,0,0,0,0,5.8,0,0,9999,77777,9,999999999,0,0,0,99,0.2,0,0
2023,12,13,1,60,9,19.6,15.5,77.0,101325,0,0,0,0,0,0,0,0,0,0,0,7.0,0,0,9999,77777,9,999999999,0,0,0,99,0.2,0,0
2023,12,13,2,60,9,19.6,15.5,77.0,101325,0,0,0,0,0,0,0,0,0,0,0,6.4,0,0,9999,77777,9,999999999,0,0,0,99,0.2,0,0
2023,12,13,3,60,9,20.1,16.0,78.0,101325,0,0,0,0,0,0,0,0,0,0,0,4.7,0,0,9999,77777,9,999999999,0,0,0,99,0.2,0,0
2023,12,13,4,60,9,22.8,15.6,64.0,101325,0,0,0,0,0,0,0,0,0,0,0,4.8,0,0,9999,77777,9,999999999,0,0,0,99,0.2,0,0
2023,12,13,5,60,9,25.7,16.4,57.0,101325,0,0,0,0,0,0,0,0,0,0,0,4.7,0,0,9999,77777,9,999999999,0,0,0,99,0.2,0,0
2023,12,13,6,60,9,28.3,16.7,49.0,101325,0,0,0,0,0,0,0,0,0,0,0,4.0,0,0,9999,77777,9,999999999,0,0,0,99,0.2,0,0
2023,12,13,7,60,9,30.1,16.0,43.0,101325,0,0,0,0,0,0,0,0,0,0,0,2.2,0,0,9999,77777,9,999999999,0,0,0,99,0.2,0,0
2023,12,13,8,60,9,30.9,16.0,41.0,101325,0,0,0,0,0,0,0,0,0,0,0,4.5,0,0,9999,77777,9,999999999,0,0,0,99,0.2,0,0
2023,12,13,9,60,9,30.8,17.4,45.0,101325,0,0,0,0,0,0,0,0,0,0,0,10.0,0,0,9999,77777,9,999999999,0,0,0,99,0.2,0,0
2023,12,13,10,60,9,30.4,18.1,48.0,101325,0,0,0,0,0,0,0,0,0,0,0,13.0,0,0,9999,77777,9,999999999,0,0,0,99,0.2,0,0
2023,12,13,11,60,9,29.8,18.6,51.0,101325,0,0,0,0,0,0,0,0,0,0,0,14.4,0,0,9999,77777,9,999999999,0,0,0,99,0.2,0,0
2023,12,13,12,60,9,28.6,19.1,56.0,101325,0,0,0,0,0,0,0,0,0,0,0,15.2,0,0,9999,77777,9,999999999,0,0,0,99,0.2,0,0
2023,12,13,13,60,9,27.3,20.7,67.0,101325,0,0,0,0,0,0,0,0,0,0,0,13.2,0,0,9999,77777,9,999999999,0,0,0,99,0.2,0,0
2023,12,13,14,60,9,26.2,21.5,75.0,101325,0,0,0,0,0,0,0,0,0,0,0,17.2,0,0,9999,77777,9,999999999,0,0,0,99,0.2,0,0
2023,12,13,15,60,9,25.9,21.1,75.0,101325,0,0,0,0,0,0,0,0,0,0,0,17.4,0,0,9999,77777,9,999999999,0,0,0,99,0.2,0,0
2023,12,13,16,60,9,25.8,19.7,69.0,101325,0,0,0,0,0,0,0,0,0,0,0,15.0,0,0,9999,77777,9,999999999,0,0,0,99,0.2,0,0
2023,12,13,17,60,9,25.4,18.4,65.0,101325,0,0,0,0,0,0,0,0,0,0,0,10.7,0,0,9999,77777,9,999999999,0,0,0,99,0.2,0,0
2023,12,13,18,60,9,24.0,17.3,66.0,101325,0,0,0,0,0,0,0,0,0,0,0,7.3,0,0,9999,77777,9,999999999,0,0,0,99,0.2,0,0
2023,12,13,19,60,9,24.3,17.1,64.0,101325,0,0,0,0,0,0,0,0,0,0,0,6.6,0,0,9999,77777,9,999999999,0,0,0,99,0.2,0,0
2023,12,13,20,60,9,24.8,16.9,62.0,101325,0,0,0,0,0,0,0,0,0,0,0,3.4,0,0,9999,77777,9,999999999,0,0,0,99,0.2,0,0
2023,12,13,21,60,9,22.7,17.8,74.0,101325,0,0,0,0,0,0,0,0,0,0,0,6.3,0,0,9999,77777,9,999999999,0,0,0,99,0.2,0,0
2023,12,13,22,60,9,22.6,18.4,77.0,101325,0,0,0,0,0,0,0,0,0,0,0,5.9,0,0,9999,77777,9,999999999,0,0,0,99,0.2,0,0
2023,12,13,23,60,9,20.7,18.2,86.0,101325,0,0,0,0,0,0,0,0,0,0,0,6.6,0,0,9999,77777,9,999999999,0,0,0,99,0.2,0,0
2023,12,13,24,60,9,20.6,17.8,84.0,101325,0,0,0,0,0,0,0,0,0,0,0,5.4,0,0,9999,77777,9,999999999,0,0,0,99,0.2,0,0
2023,12,14,1,60,9,20.4,17.5,83.0,101325,0,0,0,0,0,0,0,0,0,0,0,5.5,0,0,9999,77777,9,999999999,0,0,0,99,0.2,0,0
2023,12,14,2,60,9,20.8,17.1,79.0,101325,0,0,0,0,0,0,0,0,0,0,0,7.4,0,0,9999,77777,9,999999999,0,0,0,99,0.2,0,0
2023,12,14,3,60,9,20.6,16.8,79.0,101325,0,0,0,0,0,0,0,0,0,0,0,6.3,0,0,9999,77777,9,999999999,0,0,0,99,0.2,0,0
2023,12,14,4,60,9,22.7,16.6,68.0,101325,0,0,0,0,0,0,0,0,0,0,0,7.1,0,0,9999,77777,9,999999999,0,0,0,99,0.2,0,0
2023,12,14,5,60,9,26.2,15.9,53.0,101325,0,0,0,0,0,0,0,0,0,0,0,8.3,0,0,9999,77777,9,999999999,0,0,0,99,0.2,0,0
2023,12,14,6,60,9,28.6,15.5,45.0,101325,0,0,0,0,0,0,0,0,0,0,0,9.8,0,0,9999,77777,9,999999999,0,0,0,99,0.2,0,0
2023,12,14,7,60,9,30.6,15.6,40.0,101325,0,0,0,0,0,0,0,0,0,0,0,10.8,0,0,9999,77777,9,999999999,0,0,0,99,0.2,0,0
2023,12,14,8,60,9,32.3,13.1,31.0,101325,0,0,0,0,0,0,0,0,0,0,0,9.4,0,0,9999,77777,9,999999999,0,0,0,99,0.2,0,0
2023,12,14,9,60,9,32.6,12.7,30.0,101325,0,0,0,0,0,0,0,0,0,0,0,6.2,0,0,9999,77777,9,999999999,0,0,0,99,0.2,0,0
2023,12,14,10,60,9,32.5,12.7,30.0,101325,0,0,0,0,0,0,0,0,0,0,0,3.2,0,0,9999,77777,9,999999999,0,0,0,99,0.2,0,0
2023,12,14,11,60,9,32.0,13.7,33.0,101325,0,0,0,0,0,0,0,0,0,0,0,5.1,0,0,9999,77777,9,999999999,0,0,0,99,0.2,0,0
2023,12,14,12,60,9,30.9,16.3,42.0,101325,0,0,0,0,0,0,0,0,0,0,0,7.2,0,0,9999,77777,9,999999999,0,0,0,99,0.2,0,0
2023,12,14,13,60,9,29.2,18.5,53.0,101325,0,0,0,0,0,0,0,0,0,0,0,6.9,0,0,9999,77777,9,999999999,0,0,0,99,0.2,0,0
2023,12,14,14,60,9,26.6,20.3,69.0,101325,0,0,0,0,0,0,0,0,0,0,0,5.9,0,0,9999,77777,9,999999999,0,0,0,99,0.2,0,0
2023,12,14,15,60,9,26.2,20.2,70.0,101325,0,0,0,0,0,0,0,0,0,0,0,11.5,0,0,9999,77777,9,999999999,0,0,0,99,0.2,0,0
2023,12,14,16,60,9,26.1,16.5,55.0,101325,0,0,0,0,0,0,0,0,0,0,0,11.6,0,0,9999,77777,9,999999999,0,0,0,99,0.2,0,0
2023,12,14,17,60,9,25.9,15.5,53.0,101325,0,0,0,0,0,0,0,0,0,0,0,11.5,0,0,9999,77777,9,999999999,0,0,0,99,0.2,0,0
2023,12,14,18,60,9,25.4,15.7,55.0,101325,0,0,0,0,0,0,0,0,0,0,0,10.9,0,0,9999,77777,9,999999999,0,0,0,99,0.2,0,0
2023,12,14,19,60,9,24.4,16.3,61.0,101325,0,0,0,0,0,0,0,0,0,0,0,7.2,0,0,9999,77777,9,999999999,0,0,0,99,0.2,0,0
2023,12,14,20,60,9,23.4,16.5,65.0,101325,0,0,0,0,0,0,0,0,0,0,0,6.2,0,0,9999,77777,9,999999999,0,0,0,99,0.2,0,0
2023,12,14,21,60,9,22.9,15.8,64.0,101325,0,0,0,0,0,0,0,0,0,0,0,6.7,0,0,9999,77777,9,999999999,0,0,0,99,0.2,0,0
2023,12,14,22,60,9,22.0,15.8,68.0,101325,0,0,0,0,0,0,0,0,0,0,0,7.4,0,0,9999,77777,9,999999999,0,0,0,99,0.2,0,0
2023,12,14,23,60,9,21.6,15.8,70.0,101325,0,0,0,0,0,0,0,0,0,0,0,6.2,0,0,9999,77777,9,999999999,0,0,0,99,0.2,0,0
2023,12,14,24,60,9,21.1,16.0,72.0,101325,0,0,0,0,0,0,0,0,0,0,0,6.0,0,0,9999,77777,9,999999999,0,0,0,99,0.2,0,0
2023,12,15,1,60,9,20.7,15.9,74.0,101325,0,0,0,0,0,0,0,0,0,0,0,5.4,0,0,9999,77777,9,999999999,0,0,0,99,0.2,0,0
2023,12,15,2,60,9,20.7,15.5,72.0,101325,0,0,0,0,0,0,0,0,0,0,0,7.3,0,0,9999,77777,9,999999999,0,0,0,99,0.2,0,0
2023,12,15,3,60,9,20.8,15.5,72.0,101325,0,0,0,0,0,0,0,0,0,0,0,9.5,0,0,9999,77777,9,999999999,0,0,0,99,0.2,0,0
2023,12,15,4,60,9,23.2,15.8,63.0,101325,0,0,0,0,0,0,0,0,0,0,0,10.6,0,0,9999,77777,9,999999999,0,0,0,99,0.2,0,0
2023,12,15,5,60,9,26.5,16.4,54.0,101325,0,0,0,0,0,0,0,0,0,0,0,9.7,0,0,9999,77777,9,999999999,0,0,0,99,0.2,0,0
2023,12,15,6,60,9,29.0,15.5,44.0,101325,0,0,0,0,0,0,0,0,0,0,0,11.9,0,0,9999,77777,9,999999999,0,0,0,99,0.2,0,0
2023,12,15,7,60,9,30.9,11.9,31.0,101325,0,0,0,0,0,0,0,0,0,0,0,10.7,0,0,9999,77777,9,999999999,0,0,0,99,0.2,0,0
2023,12,15,8,60,9,31.5,11.0,28.0,101325,0,0,0,0,0,0,0,0,0,0,0,7.0,0,0,9999,77777,9,999999999,0,0,0,99,0.2,0,0
2023,12,15,9,60,9,31.9,10.9,28.0,101325,0,0,0,0,0,0,0,0,0,0,0,5.7,0,0,9999,77777,9,999999999,0,0,0,99,0.2,0,0
2023,12,15,10,60,9,31.9,10.8,27.0,101325,0,0,0,0,0,0,0,0,0,0,0,5.2,0,0,9999,77777,9,999999999,0,0,0,99,0.2,0,0
2023,12,15,11,60,9,31.4,11.1,29.0,101325,0,0,0,0,0,0,0,0,0,0,0,8.0,0,0,9999,77777,9,999999999,0,0,0,99,0.2,0,0
2023,12,15,12,60,9,30.0,11.6,32.0,101325,0,0,0,0,0,0,0,0,0,0,0,14.6,0,0,9999,77777,9,999999999,0,0,0,99,0.2,0,0
2023,12,15,13,60,9,28.4,13.0,39.0,101325,0,0,0,0,0,0,0,0,0,0,0,10.8,0,0,9999,77777,9,999999999,0,0,0,99,0.2,0,0
2023,12,15,14,60,9,26.2,15.2,51.0,101325,0,0,0,0,0,0,0,0,0,0,0,7.7,0,0,9999,77777,9,999999999,0,0,0,99,0.2,0,0
2023,12,15,15,60,9,25.9,16.0,54.0,101325,0,0,0,0,0,0,0,0,0,0,0,10.8,0,0,9999,77777,9,999999999,0,0,0,99,0.2,0,0
2023,12,15,16,60,9,25.9,15.1,51.0,101325,0,0,0,0,0,0,0,0,0,0,0,13.3,0,0,9999,77777,9,999999999,0,0,0,99,0.2,0,0
2023,12,15,17,60,9,25.4,16.0,56.0,101325,0,0,0,0,0,0,0,0,0,0,0,13.7,0,0,9999,77777,9,999999999,0,0,0,99,0.2,0,0
2023,12,15,18,60,9,25.1,17.6,63.0,101325,0,0,0,0,0,0,0,0,0,0,0,15.1,0,0,9999,77777,9,999999999,0,0,0,99,0.2,0,0
2023,12,15,19,60,9,24.6,18.2,67.0,101325,0,0,0,0,0,0,0,0,0,0,0,14.8,0,0,9999,77777,9,999999999,0,0,0,99,0.2,0,0
2023,12,15,20,60,9,23.8,19.4,76.0,101325,0,0,0,0,0,0,0,0,0,0,0,11.3,0,0,9999,77777,9,999999999,0,0,0,99,0.2,0,0
2023,12,15,21,60,9,22.5,19.0,81.0,101325,0,0,0,0,0,0,0,0,0,0,0,6.0,0,0,9999,77777,9,999999999,0,0,0,99,0.2,0,0
2023,12,15,22,60,9,21.0,17.7,81.0,101325,0,0,0,0,0,0,0,0,0,0,0,5.9,0,0,9999,77777,9,999999999,0,0,0,99,0.2,0,0
2023,12,15,23,60,9,20.4,16.7,80.0,101325,0,0,0,0,0,0,0,0,0,0,0,6.5,0,0,9999,77777,9,999999999,0,0,0,99,0.2,0,0
2023,12,15,24,60,9,20.1,15.4,74.0,101325,0,0,0,0,0,0,0,0,0,0,0,7.4,0,0,9999,77777,9,999999999,0,0,0,99,0.2,0,0
2023,12,16,1,60,9,19.4,13.7,69.0,101325,0,0,0,0,0,0,0,0,0,0,0,7.7,0,0,9999,77777,9,999999999,0,0,0,99,0.2,0,0
2023,12,16,2,60,9,19.6,14.7,73.0,101325,0,0,0,0,0,0,0,0,0,0,0,7.9,0,0,9999,77777,9,999999999,0,0,0,99,0.2,0,0
2023,12,16,3,60,9,19.6,14.1,71.0,101325,0,0,0,0,0,0,0,0,0,0,0,9.5,0,0,9999,77777,9,999999999,0,0,0,99,0.2,0,0
2023,12,16,4,60,9,21.8,14.6,64.0,101325,0,0,0,0,0,0,0,0,0,0,0,10.7,0,0,9999,77777,9,999999999,0,0,0,99,0.2,0,0
2023,12,16,5,60,9,25.3,15.1,53.0,101325,0,0,0,0,0,0,0,0,0,0,0,10.0,0,0,9999,77777,9,999999999,0,0,0,99,0.2,0,0
2023,12,16,6,60,9,28.7,13.8,40.0,101325,0,0,0,0,0,0,0,0,0,0,0,11.3,0,0,9999,77777,9,999999999,0,0,0,99,0.2,0,0
2023,12,16,7,60,9,30.5,11.0,30.0,101325,0,0,0,0,0,0,0,0,0,0,0,11.6,0,0,9999,77777,9,999999999,0,0,0,99,0.2,0,0
2023,12,16,8,60,9,31.3,10.4,28.0,101325,0,0,0,0,0,0,0,0,0,0,0,9.2,0,0,9999,77777,9,999999999,0,0,0,99,0.2,0,0
2023,12,16,9,60,9,31.7,10.0,26.0,101325,0,0,0,0,0,0,0,0,0,0,0,6.7,0,0,9999,77777,9,999999999,0,0,0,99,0.2,0,0
2023,12,16,10,60,9,31.7,9.6,26.0,101325,0,0,0,0,0,0,0,0,0,0,0,7.0,0,0,9999,77777,9,999999999,0,0,0,99,0.2,0,0
2023,12,16,11,60,9,30.7,13.1,34.0,101325,0,0,0,0,0,0,0,0,0,0,0,12.8,0,0,9999,77777,9,999999999,0,0,0,99,0.2,0,0
2023,12,16,12,60,9,29.2,15.2,43.0,101325,0,0,0,0,0,0,0,0,0,0,0,18.4,0,0,9999,77777,9,999999999,0,0,0,99,0.2,0,0
2023,12,16,13,60,9,27.5,15.3,47.0,101325,0,0,0,0,0,0,0,0,0,0,0,18.8,0,0,9999,77777,9,999999999,0,0,0,99,0.2,0,0
2023,12,16,14,60,9,26.1,15.6,52.0,101325,0,0,0,0,0,0,0,0,0,0,0,18.3,0,0,9999,77777,9,999999999,0,0,0,99,0.2,0,0
2023,12,16,15,60,9,25.6,16.0,55.0,101325,0,0,0,0,0,0,0,0,0,0,0,15.9,0,0,9999,77777,9,999999999,0,0,0,99,0.2,0,0
2023,12,16,16,60,9,25.1,16.4,59.0,101325,0,0,0,0,0,0,0,0,0,0,0,14.0,0,0,9999,77777,9,999999999,0,0,0,99,0.2,0,0
2023,12,16,17,60,9,24.6,17.1,63.0,101325,0,0,0,0,0,0,0,0,0,0,0,14.9,0,0,9999,77777,9,999999999,0,0,0,99,0.2,0,0
2023,12,16,18,60,9,24.0,15.8,60.0,101325,0,0,0,0,0,0,0,0,0,0,0,10.5,0,0,9999,77777,9,999999999,0,0,0,99,0.2,0,0
2023,12,16,19,60,9,22.9,14.7,60.0,101325,0,0,0,0,0,0,0,0,0,0,0,7.4,0,0,9999,77777,9,999999999,0,0,0,99,0.2,0,0
2023,12,16,20,60,9,22.3,14.3,61.0,101325,0,0,0,0,0,0,0,0,0,0,0,7.5,0,0,9999,77777,9,999999999,0,0,0,99,0.2,0,0
2023,12,16,21,60,9,21.7,13.9,61.0,101325,0,0,0,0,0,0,0,0,0,0,0,7.2,0,0,9999,77777,9,999999999,0,0,0,99,0.2,0,0
2023,12,16,22,60,9,21.2,13.4,61.0,101325,0,0,0,0,0,0,0,0,0,0,0,7.8,0,0,9999,77777,9,999999999,0,0,0,99,0.2,0,0
2023,12,16,23,60,9,21.1,13.1,60.0,101325,0,0,0,0,0,0,0,0,0,0,0,9.2,0,0,9999,77777,9,999999999,0,0,0,99,0.2,0,0
2023,12,16,24,60,9,20.9,13.0,60.0,101325,0,0,0,0,0,0,0,0,0,0,0,10.6,0,0,9999,77777,9,999999999,0,0,0,99,0.2,0,0
2023,12,17,1,60,9,20.7,12.8,60.0,101325,0,0,0,0,0,0,0,0,0,0,0,12.0,0,0,9999,77777,9,999999999,0,0,0,99,0.2,0,0
2023,12,17,2,60,9,21.4,13.3,60.0,101325,0,0,0,0,0,0,0,0,0,0,0,12.3,0,0,9999,77777,9,999999999,0,0,0,99,0.2,0,0
2023,12,17,3,60,9,21.5,13.4,60.0,101325,0,0,0,0,0,0,0,0,0,0,0,12.8,0,0,9999,77777,9,999999999,0,0,0,99,0.2,0,0
2023,12,17,4,60,9,23.1,14.0,57.0,101325,0,0,0,0,0,0,0,0,0,0,0,12.3,0,0,9999,77777,9,999999999,0,0,0,99,0.2,0,0
2023,12,17,5,60,9,25.9,15.0,51.0,101325,0,0,0,0,0,0,0,0,0,0,0,11.4,0,0,9999,77777,9,999999999,0,0,0,99,0.2,0,0
2023,12,17,6,60,9,28.7,15.6,45.0,101325,0,0,0,0,0,0,0,0,0,0,0,12.4,0,0,9999,77777,9,999999999,0,0,0,99,0.2,0,0
2023,12,17,7,60,9,30.5,16.4,43.0,101325,0,0,0,0,0,0,0,0,0,0,0,12.1,0,0,9999,77777,9,999999999,0,0,0,99,0.2,0,0
2023,12,17,8,60,9,31.8,15.9,38.0,101325,0,0,0,0,0,0,0,0,0,0,0,10.0,0,0,9999,77777,9,999999999,0,0,0,99,0.2,0,0
2023,12,17,9,60,9,32.1,15.1,36.0,101325,0,0,0,0,0,0,0,0,0,0,0,6.9,0,0,9999,77777,9,999999999,0,0,0,99,0.2,0,0
2023,12,17,10,60,9,32.0,14.7,35.0,101325,0,0,0,0,0,0,0,0,0,0,0,8.8,0,0,9999,77777,9,999999999,0,0,0,99,0.2,0,0
2023,12,17,11,60,9,30.5,19.3,51.0,101325,0,0,0,0,0,0,0,0,0,0,0,16.0,0,0,9999,77777,9,999999999,0,0,0,99,0.2,0,0
2023,12,17,12,60,9,29.5,20.1,57.0,101325,0,0,0,0,0,0,0,0,0,0,0,17.6,0,0,9999,77777,9,999999999,0,0,0,99,0.2,0,0
2023,12,17,13,60,9,28.0,21.0,66.0,101325,0,0,0,0,0,0,0,0,0,0,0,17.7,0,0,9999,77777,9,999999999,0,0,0,99,0.2,0,0
2023,12,17,14,60,9,27.0,21.9,74.0,101325,0,0,0,0,0,0,0,0,0,0,0,12.3,0,0,9999,77777,9,999999999,0,0,0,99,0.2,0,0
2023,12,17,15,60,9,26.3,21.6,75.0,101325,0,0,0,0,0,0,0,0,0,0,0,10.2,0,0,9999,77777,9,999999999,0,0,0,99,0.2,0,0
2023,12,17,16,60,9,25.8,19.8,69.0,101325,0,0,0,0,0,0,0,0,0,0,0,8.8,0,0,9999,77777,9,999999999,0,0,0,99,0.2,0,0
2023,12,17,17,60,9,25.3,17.9,64.0,101325,0,0,0,0,0,0,0,0,0,0,0,8.0,0,0,9999,77777,9,999999999,0,0,0,99,0.2,0,0
2023,12,17,18,60,9,24.7,15.8,58.0,101325,0,0,0,0,0,0,0,0,0,0,0,8.6,0,0,9999,77777,9,999999999,0,0,0,99,0.2,0,0
2023,12,17,19,60,9,24.7,13.7,50.0,101325,0,0,0,0,0,0,0,0,0,0,0,12.3,0,0,9999,77777,9,999999999,0,0,0,99,0.2,0,0
2023,12,17,20,60,9,24.3,14.5,54.0,101325,0,0,0,0,0,0,0,0,0,0,0,12.2,0,0,9999,77777,9,999999999,0,0,0,99,0.2,0,0
2023,12,17,21,60,9,23.8,14.9,57.0,101325,0,0,0,0,0,0,0,0,0,0,0,10.5,0,0,9999,77777,9,999999999,0,0,0,99,0.2,0,0
2023,12,17,22,60,9,23.4,14.9,59.0,101325,0,0,0,0,0,0,0,0,0,0,0,13.3,0,0,9999,77777,9,999999999,0,0,0,99,0.2,0,0
2023,12,17,23,60,9,23.2,14.5,58.0,101325,0,0,0,0,0,0,0,0,0,0,0,14.5,0,0,9999,77777,9,999999999,0,0,0,99,0.2,0,0
2023,12,17,24,60,9,22.9,14.4,59.0,101325,0,0,0,0,0,0,0,0,0,0,0,14.1,0,0,9999,77777,9,999999999,0,0,0,99,0.2,0,0
2023,12,18,1,60,9,22.8,14.3,59.0,101325,0,0,0,0,0,0,0,0,0,0,0,14.4,0,0,9999,77777,9,999999999,0,0,0,99,0.2,0,0
2023,12,18,2,60,9,22.8,14.8,61.0,101325,0,0,0,0,0,0,0,0,0,0,0,14.7,0,0,9999,77777,9,999999999,0,0,0,99,0.2,0,0
2023,12,18,3,60,9,23.1,14.7,59.0,101325,0,0,0,0,0,0,0,0,0,0,0,16.1,0,0,9999,77777,9,999999999,0,0,0,99,0.2,0,0
2023,12,18,4,60,9,24.4,15.0,56.0,101325,0,0,0,0,0,0,0,0,0,0,0,15.5,0,0,9999,77777,9,999999999,0,0,0,99,0.2,0,0
2023,12,18,5,60,9,26.4,15.2,50.0,101325,0,0,0,0,0,0,0,0,0,0,0,15.0,0,0,9999,77777,9,999999999,0,0,0,99,0.2,0,0
2023,12,18,6,60,9,28.7,15.4,44.0,101325,0,0,0,0,0,0,0,0,0,0,0,16.5,0,0,9999,77777,9,999999999,0,0,0,99,0.2,0,0
2023,12,18,7,60,9,30.5,15.7,41.0,101325,0,0,0,0,0,0,0,0,0,0,0,16.7,0,0,9999,77777,9,999999999,0,0,0,99,0.2,0,0
2023,12,18,8,60,9,31.9,15.7,38.0,101325,0,0,0,0,0,0,0,0,0,0,0,16.2,0,0,9999,77777,9,999999999,0,0,0,99,0.2,0,0
2023,12,18,9,60,9,32.7,15.3,35.0,101325,0,0,0,0,0,0,0,0,0,0,0,14.4,0,0,9999,77777,9,999999999,0,0,0,99,0.2,0,0
2023,12,18,10,60,9,32.9,15.3,35.0,101325,0,0,0,0,0,0,0,0,0,0,0,10.8,0,0,9999,77777,9,999999999,0,0,0,99,0.2,0,0
2023,12,18,11,60,9,32.5,15.2,35.0,101325,0,0,0,0,0,0,0,0,0,0,0,7.8,0,0,9999,77777,9,999999999,0,0,0,99,0.2,0,0
2023,12,18,12,60,9,31.1,15.9,40.0,101325,0,0,0,0,0,0,0,0,0,0,0,4.8,0,0,9999,77777,9,999999999,0,0,0,99,0.2,0,0
2023,12,18,13,60,9,29.3,20.0,58.0,101325,0,0,0,0,0,0,0,0,0,0,0,6.3,0,0,9999,77777,9,999999999,0,0,0,99,0.2,0,0
2023,12,18,14,60,9,28.1,19.9,61.0,101325,0,0,0,0,0,0,0,0,0,0,0,2.1,0,0,9999,77777,9,999999999,0,0,0,99,0.2,0,0
2023,12,18,15,60,9,27.3,19.9,64.0,101325,0,0,0,0,0,0,0,0,0,0,0,4.7,0,0,9999,77777,9,999999999,0,0,0,99,0.2,0,0
2023,12,18,16,60,9,27.4,16.9,53.0,101325,0,0,0,0,0,0,0,0,0,0,0,6.2,0,0,9999,77777,9,999999999,0,0,0,99,0.2,0,0
2023,12,18,17,60,9,27.4,15.1,47.0,101325,0,0,0,0,0,0,0,0,0,0,0,13.8,0,0,9999,77777,9,999999999,0,0,0,99,0.2,0,0
2023,12,18,18,60,9,26.7,14.7,48.0,101325,0,0,0,0,0,0,0,0,0,0,0,15.7,0,0,9999,77777,9,999999999,0,0,0,99,0.2,0,0
2023,12,18,19,60,9,26.1,14.5,49.0,101325,0,0,0,0,0,0,0,0,0,0,0,12.6,0,0,9999,77777,9,999999999,0,0,0,99,0.2,0,0
2023,12,18,20,60,9,25.7,14.4,50.0,101325,0,0,0,0,0,0,0,0,0,0,0,12.8,0,0,9999,77777,9,999999999,0,0,0,99,0.2,0,0
2023,12,18,21,60,9,25.2,14.2,51.0,101325,0,0,0,0,0,0,0,0,0,0,0,14.3,0,0,9999,77777,9,999999999,0,0,0,99,0.2,0,0
2023,12,18,22,60,9,24.6,14.3,53.0,101325,0,0,0,0,0,0,0,0,0,0,0,14.3,0,0,9999,77777,9,999999999,0,0,0,99,0.2,0,0
2023,12,18,23,60,9,24.2,14.3,54.0,101325,0,0,0,0,0,0,0,0,0,0,0,14.5,0,0,9999,77777,9,999999999,0,0,0,99,0.2,0,0
2023,12,18,24,60,9,24.1,14.4,54.0,101325,0,0,0,0,0,0,0,0,0,0,0,13.9,0,0,9999,77777,9,999999999,0,0,0,99,0.2,0,0
2023,12,19,1,60,9,24.1,14.5,55.0,101325,0,0,0,0,0,0,0,0,0,0,0,12.8,0,0,9999,77777,9,999999999,0,0,0,99,0.2,0,0
2023,12,19,2,60,9,23.6,14.5,57.0,101325,0,0,0,0,0,0,0,0,0,0,0,12.6,0,0,9999,77777,9,999999999,0,0,0,99,0.2,0,0
2023,12,19,3,60,9,23.6,14.6,57.0,101325,0,0,0,0,0,0,0,0,0,0,0,12.7,0,0,9999,77777,9,999999999,0,0,0,99,0.2,0,0
2023,12,19,4,60,9,24.5,15.1,56.0,101325,0,0,0,0,0,0,0,0,0,0,0,12.9,0,0,9999,77777,9,999999999,0,0,0,99,0.2,0,0
2023,12,19,5,60,9,26.5,15.3,50.0,101325,0,0,0,0,0,0,0,0,0,0,0,13.1,0,0,9999,77777,9,999999999,0,0,0,99,0.2,0,0
2023,12,19,6,60,9,28.5,15.1,44.0,101325,0,0,0,0,0,0,0,0,0,0,0,15.2,0,0,9999,77777,9,999999999,0,0,0,99,0.2,0,0
2023,12,19,7,60,9,30.5,15.3,40.0,101325,0,0,0,0,0,0,0,0,0,0,0,14.8,0,0,9999,77777,9,999999999,0,0,0,99,0.2,0,0
2023,12,19,8,60,9,32.0,14.8,35.0,101325,0,0,0,0,0,0,0,0,0,0,0,13.3,0,0,9999,77777,9,999999999,0,0,0,99,0.2,0,0
2023,12,19,9,60,9,32.6,14.6,34.0,101325,0,0,0,0,0,0,0,0,0,0,0,9.2,0,0,9999,77777,9,999999999,0,0,0,99,0.2,0,0
2023,12,19,10,60,9,32.6,14.7,34.0,101325,0,0,0,0,0,0,0,0,0,0,0,7.3,0,0,9999,77777,9,999999999,0,0,0,99,0.2,0,0
2023,12,19,11,60,9,32.1,14.8,35.0,101325,0,0,0,0,0,0,0,0,0,0,0,8.8,0,0,9999,77777,9,999999999,0,0,0,99,0.2,0,0
2023,12,19,12,60,9,29.6,19.6,55.0,101325,0,0,0,0,0,0,0,0,0,0,0,15.7,0,0,9999,77777,9,999999999,0,0,0,99,0.2,0,0
2023,12,19,13,60,9,28.0,20.4,64.0,101325,0,0,0,0,0,0,0,0,0,0,0,15.8,0,0,9999,77777,9,999999999,0,0,0,99,0.2,0,0
2023,12,19,14,60,9,27.1,21.3,71.0,101325,0,0,0,0,0,0,0,0,0,0,0,9.4,0,0,9999,77777,9,999999999,0,0,0,99,0.2,0,0
2023,12,19,15,60,9,26.5,21.6,75.0,101325,0,0,0,0,0,0,0,0,0,0,0,8.0,0,0,9999,77777,9,999999999,0,0,0,99,0.2,0,0
2023,12,19,16,60,9,25.9,19.7,68.0,101325,0,0,0,0,0,0,0,0,0,0,0,6.8,0,0,9999,77777,9,999999999,0,0,0,99,0.2,0,0
2023,12,19,17,60,9,25.7,14.6,50.0,101325,0,0,0,0,0,0,0,0,0,0,0,7.4,0,0,9999,77777,9,999999999,0,0,0,99,0.2,0,0
2023,12,19,18,60,9,25.2,13.7,49.0,101325,0,0,0,0,0,0,0,0,0,0,0,9.4,0,0,9999,77777,9,999999999,0,0,0,99,0.2,0,0
2023,12,19,19,60,9,24.4,13.3,50.0,101325,0,0,0,0,0,0,0,0,0,0,0,8.4,0,0,9999,77777,9,999999999,0,0,0,99,0.2,0,0
2023,12,19,20,60,9,23.4,13.2,53.0,101325,0,0,0,0,0,0,0,0,0,0,0,6.5,0,0,9999,77777,9,999999999,0,0,0,99,0.2,0,0
2023,12,19,21,60,9,22.7,13.1,54.0,101325,0,0,0,0,0,0,0,0,0,0,0,6.9,0,0,9999,77777,9,999999999,0,0,0,99,0.2,0,0
2023,12,19,22,60,9,22.1,12.9,56.0,101325,0,0,0,0,0,0,0,0,0,0,0,8.0,0,0,9999,77777,9,999999999,0,0,0,99,0.2,0,0
2023,12,19,23,60,9,21.5,12.7,57.0,101325,0,0,0,0,0,0,0,0,0,0,0,8.6,0,0,9999,77777,9,999999999,0,0,0,99,0.2,0,0
2023,12,19,24,60,9,21.2,12.5,58.0,101325,0,0,0,0,0,0,0,0,0,0,0,8.9,0,0,9999,77777,9,999999999,0,0,0,99,0.2,0,0
2023,12,20,1,60,9,21.0,12.2,57.0,101325,0,0,0,0,0,0,0,0,0,0,0,9.2,0,0,9999,77777,9,999999999,0,0,0,99,0.2,0,0
2023,12,20,2,60,9,21.5,11.8,54.0,101325,0,0,0,0,0,0,0,0,0,0,0,8.1,0,0,9999,77777,9,999999999,0,0,0,99,0.2,0,0
2023,12,20,3,60,9,21.4,11.5,53.0,101325,0,0,0,0,0,0,0,0,0,0,0,8.9,0,0,9999,77777,9,999999999,0,0,0,99,0.2,0,0
2023,12,20,4,60,9,22.7,12.1,51.0,101325,0,0,0,0,0,0,0,0,0,0,0,10.2,0,0,9999,77777,9,999999999,0,0,0,99,0.2,0,0
2023,12,20,5,60,9,25.0,12.5,46.0,101325,0,0,0,0,0,0,0,0,0,0,0,8.9,0,0,9999,77777,9,999999999,0,0,0,99,0.2,0,0
2023,12,20,6,60,9,27.7,11.9,37.0,101325,0,0,0,0,0,0,0,0,0,0,0,11.8,0,0,9999,77777,9,999999999,0,0,0,99,0.2,0,0
2023,12,20,7,60,9,29.8,12.1,34.0,101325,0,0,0,0,0,0,0,0,0,0,0,12.3,0,0,9999,77777,9,999999999,0,0,0,99,0.2,0,0
2023,12,20,8,60,9,31.3,12.4,31.0,101325,0,0,0,0,0,0,0,0,0,0,0,10.1,0,0,9999,77777,9,999999999,0,0,0,99,0.2,0,0
2023,12,20,9,60,9,32.4,12.3,29.0,101325,0,0,0,0,0,0,0,0,0,0,0,7.8,0,0,9999,77777,9,999999999,0,0,0,99,0.2,0,0
2023,12,20,10,60,9,32.6,12.1,29.0,101325,0,0,0,0,0,0,0,0,0,0,0,2.3,0,0,9999,77777,9,999999999,0,0,0,99,0.2,0,0
2023,12,20,11,60,9,31.4,14.8,37.0,101325,0,0,0,0,0,0,0,0,0,0,0,10.2,0,0,9999,77777,9,999999999,0,0,0,99,0.2,0,0
2023,12,20,12,60,9,29.1,18.0,51.0,101325,0,0,0,0,0,0,0,0,0,0,0,17.1,0,0,9999,77777,9,999999999,0,0,0,99,0.2,0,0
2023,12,20,13,60,9,27.3,17.6,55.0,101325,0,0,0,0,0,0,0,0,0,0,0,16.4,0,0,9999,77777,9,999999999,0,0,0,99,0.2,0,0
2023,12,20,14,60,9,26.3,15.9,53.0,101325,0,0,0,0,0,0,0,0,0,0,0,14.2,0,0,9999,77777,9,999999999,0,0,0,99,0.2,0,0
2023,12,20,15,60,9,26.0,16.3,55.0,101325,0,0,0,0,0,0,0,0,0,0,0,14.6,0,0,9999,77777,9,999999999,0,0,0,99,0.2,0,0
2023,12,20,16,60,9,25.7,15.2,52.0,101325,0,0,0,0,0,0,0,0,0,0,0,14.8,0,0,9999,77777,9,999999999,0,0,0,99,0.2,0,0
2023,12,20,17,60,9,25.6,13.9,48.0,101325,0,0,0,0,0,0,0,0,0,0,0,12.3,0,0,9999,77777,9,999999999,0,0,0,99,0.2,0,0
2023,12,20,18,60,9,25.3,14.4,51.0,101325,0,0,0,0,0,0,0,0,0,0,0,8.5,0,0,9999,77777,9,999999999,0,0,0,99,0.2,0,0
2023,12,20,19,60,9,24.4,16.5,61.0,101325,0,0,0,0,0,0,0,0,0,0,0,7.0,0,0,9999,77777,9,999999999,0,0,0,99,0.2,0,0
2023,12,20,20,60,9,23.9,16.3,62.0,101325,0,0,0,0,0,0,0,0,0,0,0,6.4,0,0,9999,77777,9,999999999,0,0,0,99,0.2,0,0
2023,12,20,21,60,9,23.5,14.5,57.0,101325,0,0,0,0,0,0,0,0,0,0,0,5.2,0,0,9999,77777,9,999999999,0,0,0,99,0.2,0,0
2023,12,20,22,60,9,22.2,14.7,63.0,101325,0,0,0,0,0,0,0,0,0,0,0,6.0,0,0,9999,77777,9,999999999,0,0,0,99,0.2,0,0
2023,12,20,23,60,9,22.5,14.1,59.0,101325,0,0,0,0,0,0,0,0,0,0,0,8.6,0,0,9999,77777,9,999999999,0,0,0,99,0.2,0,0
2023,12,20,24,60,9,22.2,14.0,60.0,101325,0,0,0,0,0,0,0,0,0,0,0,6.4,0,0,9999,77777,9,999999999,0,0,0,99,0.2,0,0
2023,12,21,1,60,9,21.5,13.6,61.0,101325,0,0,0,0,0,0,0,0,0,0,0,8.8,0,0,9999,77777,9,999999999,0,0,0,99,0.2,0,0
2023,12,21,2,60,9,21.9,14.4,62.0,101325,0,0,0,0,0,0,0,0,0,0,0,11.2,0,0,9999,77777,9,999999999,0,0,0,99,0.2,0,0
2023,12,21,3,60,9,22.3,13.7,58.0,101325,0,0,0,0,0,0,0,0,0,0,0,12.9,0,0,9999,77777,9,999999999,0,0,0,99,0.2,0,0
2023,12,21,4,60,9,23.7,14.2,55.0,101325,0,0,0,0,0,0,0,0,0,0,0,11.6,0,0,9999,77777,9,999999999,0,0,0,99,0.2,0,0
2023,12,21,5,60,9,26.6,14.9,49.0,101325,0,0,0,0,0,0,0,0,0,0,0,9.4,0,0,9999,77777,9,999999999,0,0,0,99,0.2,0,0
2023,12,21,6,60,9,29.4,15.4,43.0,101325,0,0,0,0,0,0,0,0,0,0,0,10.9,0,0,9999,77777,9,999999999,0,0,0,99,0.2,0,0
2023,12,21,7,60,9,31.7,15.1,37.0,101325,0,0,0,0,0,0,0,0,0,0,0,11.6,0,0,9999,77777,9,999999999,0,0,0,99,0.2,0,0
2023,12,21,8,60,9,33.1,13.8,31.0,101325,0,0,0,0,0,0,0,0,0,0,0,6.4,0,0,9999,77777,9,999999999,0,0,0,99,0.2,0,0
2023,12,21,9,60,9,33.1,14.4,32.0,101325,0,0,0,0,0,0,0,0,0,0,0,8.3,0,0,9999,77777,9,999999999,0,0,0,99,0.2,0,0
2023,12,21,10,60,9,31.0,17.6,45.0,101325,0,0,0,0,0,0,0,0,0,0,0,15.9,0,0,9999,77777,9,999999999,0,0,0,99,0.2,0,0
2023,12,21,11,60,9,30.2,18.1,48.0,101325,0,0,0,0,0,0,0,0,0,0,0,16.1,0,0,9999,77777,9,999999999,0,0,0,99,0.2,0,0
2023,12,21,12,60,9,28.6,18.3,54.0,101325,0,0,0,0,0,0,0,0,0,0,0,14.0,0,0,9999,77777,9,999999999,0,0,0,99,0.2,0,0
2023,12,21,13,60,9,28.1,17.6,53.0,101325,0,0,0,0,0,0,0,0,0,0,0,13.3,0,0,9999,77777,9,999999999,0,0,0,99,0.2,0,0
2023,12,21,14,60,9,26.5,17.5,58.0,101325,0,0,0,0,0,0,0,0,0,0,0,12.7,0,0,9999,77777,9,999999999,0,0,0,99,0.2,0,0
2023,12,21,15,60,9,26.3,17.0,56.0,101325,0,0,0,0,0,0,0,0,0,0,0,13.1,0,0,9999,77777,9,999999999,0,0,0,99,0.2,0,0
2023,12,21,16,60,9,26.0,17.2,58.0,101325,0,0,0,0,0,0,0,0,0,0,0,10.8,0,0,9999,77777,9,999999999,0,0,0,99,0.2,0,0
2023,12,21,17,60,9,25.6,16.7,58.0,101325,0,0,0,0,0,0,0,0,0,0,0,8.0,0,0,9999,77777,9,999999999,0,0,0,99,0.2,0,0
2023,12,21,18,60,9,25.1,15.4,55.0,101325,0,0,0,0,0,0,0,0,0,0,0,6.8,0,0,9999,77777,9,999999999,0,0,0,99,0.2,0,0
2023,12,21,19,60,9,24.6,15.1,56.0,101325,0,0,0,0,0,0,0,0,0,0,0,5.4,0,0,9999,77777,9,999999999,0,0,0,99,0.2,0,0
2023,12,21,20,60,9,23.7,15.6,60.0,101325,0,0,0,0,0,0,0,0,0,0,0,5.1,0,0,9999,77777,9,999999999,0,0,0,99,0.2,0,0
2023,12,21,21,60,9,23.3,15.4,61.0,101325,0,0,0,0,0,0,0,0,0,0,0,3.6,0,0,9999,77777,9,999999999,0,0,0,99,0.2,0,0
2023,12,21,22,60,9,22.1,15.6,67.0,101325,0,0,0,0,0,0,0,0,0,0,0,5.9,0,0,9999,77777,9,999999999,0,0,0,99,0.2,0,0
2023,12,21,23,60,9,21.5,15.5,68.0,101325,0,0,0,0,0,0,0,0,0,0,0,6.4,0,0,9999,77777,9,999999999,0,0,0,99,0.2,0,0
2023,12,21,24,60,9,21.0,15.2,69.0,101325,0,0,0,0,0,0,0,0,0,0,0,5.4,0,0,9999,77777,9,999999999,0,0,0,99,0.2,0,0
2023,12,22,1,60,9,20.7,15.4,71.0,101325,0,0,0,0,0,0,0,0,0,0,0,4.7,0,0,9999,77777,9,999999999,0,0,0,99,0.2,0,0
2023,12,22,2,60,9,21.6,18.0,80.0,101325,0,0,0,0,0,0,0,0,0,0,0,7.2,0,0,9999,77777,9,999999999,0,0,0,99,0.2,0,0
2023,12,22,3,60,9,22.8,18.0,75.0,101325,0,0,0,0,0,0,0,0,0,0,0,3.9,0,0,9999,77777,9,999999999,0,0,0,99,0.2,0,0
2023,12,22,4,60,9,24.6,18.0,67.0,101325,0,0,0,0,0,0,0,0,0,0,0,7.9,0,0,9999,77777,9,999999999,0,0,0,99,0.2,0,0
2023,12,22,5,60,9,26.4,18.2,61.0,101325,0,0,0,0,0,0,0,0,0,0,0,7.1,0,0,9999,77777,9,999999999,0,0,0,99,0.2,0,0
2023,12,22,6,60,9,28.1,18.3,55.0,101325,0,0,0,0,0,0,0,0,0,0,0,4.5,0,0,9999,77777,9,999999999,0,0,0,99,0.2,0,0
2023,12,22,7,60,9,30.4,18.2,48.0,101325,0,0,0,0,0,0,0,0,0,0,0,3.1,0,0,9999,77777,9,999999999,0,0,0,99,0.2,0,0
2023,12,22,8,60,9,31.6,17.8,44.0,101325,0,0,0,0,0,0,0,0,0,0,0,5.6,0,0,9999,77777,9,999999999,0,0,0,99,0.2,0,0
2023,12,22,9,60,9,30.3,19.7,53.0,101325,0,0,0,0,0,0,0,0,0,0,0,11.5,0,0,9999,77777,9,999999999,0,0,0,99,0.2,0,0
2023,12,22,10,60,9,30.8,19.9,52.0,101325,0,0,0,0,0,0,0,0,0,0,0,12.4,0,0,9999,77777,9,999999999,0,0,0,99,0.2,0,0
2023,12,22,11,60,9,30.6,18.4,48.0,101325,0,0,0,0,0,0,0,0,0,0,0,12.3,0,0,9999,77777,9,999999999,0,0,0,99,0.2,0,0
2023,12,22,12,60,9,29.5,18.3,51.0,101325,0,0,0,0,0,0,0,0,0,0,0,12.5,0,0,9999,77777,9,999999999,0,0,0,99,0.2,0,0
2023,12,22,13,60,9,28.1,20.3,63.0,101325,0,0,0,0,0,0,0,0,0,0,0,10.6,0,0,9999,77777,9,999999999,0,0,0,99,0.2,0,0
2023,12,22,14,60,9,25.9,18.7,65.0,101325,0,0,0,0,0,0,0,0,0,0,0,6.2,0,0,9999,77777,9,999999999,0,0,0,99,0.2,0,0
2023,12,22,15,60,9,25.1,17.8,64.0,101325,0,0,0,0,0,0,0,0,0,0,0,6.8,0,0,9999,77777,9,999999999,0,0,0,99,0.2,0,0
2023,12,22,16,60,9,24.9,17.1,62.0,101325,0,0,0,0,0,0,0,0,0,0,0,6.7,0,0,9999,77777,9,999999999,0,0,0,99,0.2,0,0
2023,12,22,17,60,9,25.1,20.0,74.0,101325,0,0,0,0,0,0,0,0,0,0,0,12.0,0,0,9999,77777,9,999999999,0,0,0,99,0.2,0,0
2023,12,22,18,60,9,24.6,20.1,76.0,101325,0,0,0,0,0,0,0,0,0,0,0,11.3,0,0,9999,77777,9,999999999,0,0,0,99,0.2,0,0
2023,12,22,19,60,9,24.4,18.5,69.0,101325,0,0,0,0,0,0,0,0,0,0,0,9.7,0,0,9999,77777,9,999999999,0,0,0,99,0.2,0,0
2023,12,22,20,60,9,23.5,18.0,71.0,101325,0,0,0,0,0,0,0,0,0,0,0,7.3,0,0,9999,77777,9,999999999,0,0,0,99,0.2,0,0
2023,12,22,21,60,9,22.7,17.8,74.0,101325,0,0,0,0,0,0,0,0,0,0,0,6.9,0,0,9999,77777,9,999999999,0,0,0,99,0.2,0,0
2023,12,22,22,60,9,21.8,17.6,77.0,101325,0,0,0,0,0,0,0,0,0,0,0,6.3,0,0,9999,77777,9,999999999,0,0,0,99,0.2,0,0
2023,12,22,23,60,9,21.0,16.7,76.0,101325,0,0,0,0,0,0,0,0,0,0,0,5.8,0,0,9999,77777,9,999999999,0,0,0,99,0.2,0,0
2023,12,22,24,60,9,20.5,15.5,73.0,101325,0,0,0,0,0,0,0,0,0,0,0,5.6,0,0,9999,77777,9,999999999,0,0,0,99,0.2,0,0
2023,12,23,1,60,9,20.5,14.9,70.0,101325,0,0,0,0,0,0,0,0,0,0,0,6.7,0,0,9999,77777,9,999999999,0,0,0,99,0.2,0,0
2023,12,23,2,60,9,20.9,17.5,81.0,101325,0,0,0,0,0,0,0,0,0,0,0,4.3,0,0,9999,77777,9,999999999,0,0,0,99,0.2,0,0
2023,12,23,3,60,9,20.7,17.0,80.0,101325,0,0,0,0,0,0,0,0,0,0,0,5.9,0,0,9999,77777,9,999999999,0,0,0,99,0.2,0,0
2023,12,23,4,60,9,22.7,17.0,70.0,101325,0,0,0,0,0,0,0,0,0,0,0,7.4,0,0,9999,77777,9,999999999,0,0,0,99,0.2,0,0
2023,12,23,5,60,9,26.4,17.5,58.0,101325,0,0,0,0,0,0,0,0,0,0,0,7.4,0,0,9999,77777,9,999999999,0,0,0,99,0.2,0,0
2023,12,23,6,60,9,29.8,17.2,47.0,101325,0,0,0,0,0,0,0,0,0,0,0,6.9,0,0,9999,77777,9,999999999,0,0,0,99,0.2,0,0
2023,12,23,7,60,9,32.3,15.3,36.0,101325,0,0,0,0,0,0,0,0,0,0,0,5.7,0,0,9999,77777,9,999999999,0,0,0,99,0.2,0,0
2023,12,23,8,60,9,33.1,13.9,31.0,101325,0,0,0,0,0,0,0,0,0,0,0,4.0,0,0,9999,77777,9,999999999,0,0,0,99,0.2,0,0
2023,12,23,9,60,9,33.0,15.3,34.0,101325,0,0,0,0,0,0,0,0,0,0,0,6.9,0,0,9999,77777,9,999999999,0,0,0,99,0.2,0,0
2023,12,23,10,60,9,31.9,19.0,46.0,101325,0,0,0,0,0,0,0,0,0,0,0,11.6,0,0,9999,77777,9,999999999,0,0,0,99,0.2,0,0
2023,12,23,11,60,9,30.9,19.3,50.0,101325,0,0,0,0,0,0,0,0,0,0,0,14.4,0,0,9999,77777,9,999999999,0,0,0,99,0.2,0,0
2023,12,23,12,60,9,29.5,18.2,51.0,101325,0,0,0,0,0,0,0,0,0,0,0,16.6,0,0,9999,77777,9,999999999,0,0,0,99,0.2,0,0
2023,12,23,13,60,9,28.1,20.5,63.0,101325,0,0,0,0,0,0,0,0,0,0,0,14.7,0,0,9999,77777,9,999999999,0,0,0,99,0.2,0,0
2023,12,23,14,60,9,26.7,19.2,63.0,101325,0,0,0,0,0,0,0,0,0,0,0,17.7,0,0,9999,77777,9,999999999,0,0,0,99,0.2,0,0
2023,12,23,15,60,9,26.4,19.0,64.0,101325,0,0,0,0,0,0,0,0,0,0,0,18.2,0,0,9999,77777,9,999999999,0,0,0,99,0.2,0,0
2023,12,23,16,60,9,26.0,18.6,64.0,101325,0,0,0,0,0,0,0,0,0,0,0,18.4,0,0,9999,77777,9,999999999,0,0,0,99,0.2,0,0
2023,12,23,17,60,9,25.8,16.8,58.0,101325,0,0,0,0,0,0,0,0,0,0,0,16.2,0,0,9999,77777,9,999999999,0,0,0,99,0.2,0,0
2023,12,23,18,60,9,25.3,16.2,57.0,101325,0,0,0,0,0,0,0,0,0,0,0,8.6,0,0,9999,77777,9,999999999,0,0,0,99,0.2,0,0
2023,12,23,19,60,9,23.5,16.1,63.0,101325,0,0,0,0,0,0,0,0,0,0,0,8.9,0,0,9999,77777,9,999999999,0,0,0,99,0.2,0,0
2023,12,23,20,60,9,23.4,15.5,61.0,101325,0,0,0,0,0,0,0,0,0,0,0,7.2,0,0,9999,77777,9,999999999,0,0,0,99,0.2,0,0
2023,12,23,21,60,9,22.7,15.5,64.0,101325,0,0,0,0,0,0,0,0,0,0,0,7.1,0,0,9999,77777,9,999999999,0,0,0,99,0.2,0,0
2023,12,23,22,60,9,21.6,15.5,68.0,101325,0,0,0,0,0,0,0,0,0,0,0,7.6,0,0,9999,77777,9,999999999,0,0,0,99,0.2,0,0
2023,12,23,23,60,9,20.6,15.3,72.0,101325,0,0,0,0,0,0,0,0,0,0,0,6.8,0,0,9999,77777,9,999999999,0,0,0,99,0.2,0,0
2023,12,23,24,60,9,20.1,15.2,73.0,101325,0,0,0,0,0,0,0,0,0,0,0,6.9,0,0,9999,77777,9,999999999,0,0,0,99,0.2,0,0
2023,12,24,1,60,9,19.8,14.9,74.0,101325,0,0,0,0,0,0,0,0,0,0,0,6.4,0,0,9999,77777,9,999999999,0,0,0,99,0.2,0,0
2023,12,24,2,60,9,19.9,14.3,70.0,101325,0,0,0,0,0,0,0,0,0,0,0,5.9,0,0,9999,77777,9,999999999,0,0,0,99,0.2,0,0
2023,12,24,3,60,9,19.8,13.6,67.0,101325,0,0,0,0,0,0,0,0,0,0,0,5.9,0,0,9999,77777,9,999999999,0,0,0,99,0.2,0,0
2023,12,24,4,60,9,21.9,12.4,55.0,101325,0,0,0,0,0,0,0,0,0,0,0,7.2,0,0,9999,77777,9,999999999,0,0,0,99,0.2,0,0
2023,12,24,5,60,9,25.4,12.5,45.0,101325,0,0,0,0,0,0,0,0,0,0,0,5.7,0,0,9999,77777,9,999999999,0,0,0,99,0.2,0,0
2023,12,24,6,60,9,28.8,12.1,36.0,101325,0,0,0,0,0,0,0,0,0,0,0,4.8,0,0,9999,77777,9,999999999,0,0,0,99,0.2,0,0
2023,12,24,7,60,9,31.3,11.6,30.0,101325,0,0,0,0,0,0,0,0,0,0,0,3.6,0,0,9999,77777,9,999999999,0,0,0,99,0.2,0,0
2023,12,24,8,60,9,32.6,11.7,28.0,101325,0,0,0,0,0,0,0,0,0,0,0,1.5,0,0,9999,77777,9,999999999,0,0,0,99,0.2,0,0
2023,12,24,9,60,9,32.8,13.1,30.0,101325,0,0,0,0,0,0,0,0,0,0,0,5.9,0,0,9999,77777,9,999999999,0,0,0,99,0.2,0,0
2023,12,24,10,60,9,32.1,15.4,37.0,101325,0,0,0,0,0,0,0,0,0,0,0,9.9,0,0,9999,77777,9,999999999,0,0,0,99,0.2,0,0
2023,12,24,11,60,9,31.1,15.6,39.0,101325,0,0,0,0,0,0,0,0,0,0,0,12.1,0,0,9999,77777,9,999999999,0,0,0,99,0.2,0,0
2023,12,24,12,60,9,29.5,15.1,41.0,101325,0,0,0,0,0,0,0,0,0,0,0,13.1,0,0,9999,77777,9,999999999,0,0,0,99,0.2,0,0
2023,12,24,13,60,9,28.1,14.9,44.0,101325,0,0,0,0,0,0,0,0,0,0,0,11.0,0,0,9999,77777,9,999999999,0,0,0,99,0.2,0,0
2023,12,24,14,60,9,26.4,16.7,55.0,101325,0,0,0,0,0,0,0,0,0,0,0,13.6,0,0,9999,77777,9,999999999,0,0,0,99,0.2,0,0
2023,12,24,15,60,9,25.7,18.9,66.0,101325,0,0,0,0,0,0,0,0,0,0,0,15.1,0,0,9999,77777,9,999999999,0,0,0,99,0.2,0,0
2023,12,24,16,60,9,25.6,18.0,63.0,101325,0,0,0,0,0,0,0,0,0,0,0,14.2,0,0,9999,77777,9,999999999,0,0,0,99,0.2,0,0
2023,12,24,17,60,9,25.1,17.2,62.0,101325,0,0,0,0,0,0,0,0,0,0,0,8.4,0,0,9999,77777,9,999999999,0,0,0,99,0.2,0,0
2023,12,24,18,60,9,22.7,16.4,68.0,101325,0,0,0,0,0,0,0,0,0,0,0,7.5,0,0,9999,77777,9,999999999,0,0,0,99,0.2,0,0
2023,12,24,19,60,9,22.3,16.1,68.0,101325,0,0,0,0,0,0,0,0,0,0,0,7.6,0,0,9999,77777,9,999999999,0,0,0,99,0.2,0,0
2023,12,24,20,60,9,20.9,15.7,72.0,101325,0,0,0,0,0,0,0,0,0,0,0,9.9,0,0,9999,77777,9,999999999,0,0,0,99,0.2,0,0
2023,12,24,21,60,9,20.6,15.2,71.0,101325,0,0,0,0,0,0,0,0,0,0,0,6.4,0,0,9999,77777,9,999999999,0,0,0,99,0.2,0,0
2023,12,24,22,60,9,20.1,13.9,68.0,101325,0,0,0,0,0,0,0,0,0,0,0,6.1,0,0,9999,77777,9,999999999,0,0,0,99,0.2,0,0
2023,12,24,23,60,9,19.7,13.1,66.0,101325,0,0,0,0,0,0,0,0,0,0,0,5.9,0,0,9999,77777,9,999999999,0,0,0,99,0.2,0,0
2023,12,24,24,60,9,19.5,12.8,65.0,101325,0,0,0,0,0,0,0,0,0,0,0,6.6,0,0,9999,77777,9,999999999,0,0,0,99,0.2,0,0
2023,12,25,1,60,9,18.9,12.4,66.0,101325,0,0,0,0,0,0,0,0,0,0,0,6.1,0,0,9999,77777,9,999999999,0,0,0,99,0.2,0,0
2023,12,25,2,60,9,19.5,12.1,62.0,101325,0,0,0,0,0,0,0,0,0,0,0,6.6,0,0,9999,77777,9,999999999,0,0,0,99,0.2,0,0
2023,12,25,3,60,9,19.6,12.2,62.0,101325,0,0,0,0,0,0,0,0,0,0,0,7.3,0,0,9999,77777,9,999999999,0,0,0,99,0.2,0,0
2023,12,25,4,60,9,21.8,12.8,57.0,101325,0,0,0,0,0,0,0,0,0,0,0,8.9,0,0,9999,77777,9,999999999,0,0,0,99,0.2,0,0
2023,12,25,5,60,9,25.6,14.4,50.0,101325,0,0,0,0,0,0,0,0,0,0,0,8.4,0,0,9999,77777,9,999999999,0,0,0,99,0.2,0,0
2023,12,25,6,60,9,29.2,14.1,40.0,101325,0,0,0,0,0,0,0,0,0,0,0,6.9,0,0,9999,77777,9,999999999,0,0,0,99,0.2,0,0
2023,12,25,7,60,9,31.3,14.2,35.0,101325,0,0,0,0,0,0,0,0,0,0,0,5.4,0,0,9999,77777,9,999999999,0,0,0,99,0.2,0,0
2023,12,25,8,60,9,32.5,14.1,33.0,101325,0,0,0,0,0,0,0,0,0,0,0,0.0,0,0,9999,77777,9,999999999,0,0,0,99,0.2,0,0
2023,12,25,9,60,9,32.8,14.2,33.0,101325,0,0,0,0,0,0,0,0,0,0,0,6.6,0,0,9999,77777,9,999999999,0,0,0,99,0.2,0,0
2023,12,25,10,60,9,31.7,16.8,41.0,101325,0,0,0,0,0,0,0,0,0,0,0,13.2,0,0,9999,77777,9,999999999,0,0,0,99,0.2,0,0
2023,12,25,11,60,9,30.5,16.5,43.0,101325,0,0,0,0,0,0,0,0,0,0,0,15.4,0,0,9999,77777,9,999999999,0,0,0,99,0.2,0,0
2023,12,25,12,60,9,29.2,15.9,45.0,101325,0,0,0,0,0,0,0,0,0,0,0,15.8,0,0,9999,77777,9,999999999,0,0,0,99,0.2,0,0
2023,12,25,13,60,9,27.6,18.1,56.0,101325,0,0,0,0,0,0,0,0,0,0,0,15.1,0,0,9999,77777,9,999999999,0,0,0,99,0.2,0,0
2023,12,25,14,60,9,26.1,18.3,62.0,101325,0,0,0,0,0,0,0,0,0,0,0,15.8,0,0,9999,77777,9,999999999,0,0,0,99,0.2,0,0
2023,12,25,15,60,9,25.6,17.1,59.0,101325,0,0,0,0,0,0,0,0,0,0,0,16.0,0,0,9999,77777,9,999999999,0,0,0,99,0.2,0,0
2023,12,25,16,60,9,25.5,16.0,56.0,101325,0,0,0,0,0,0,0,0,0,0,0,15.8,0,0,9999,77777,9,999999999,0,0,0,99,0.2,0,0
2023,12,25,17,60,9,25.2,13.7,49.0,101325,0,0,0,0,0,0,0,0,0,0,0,13.5,0,0,9999,77777,9,999999999,0,0,0,99,0.2,0,0
2023,12,25,18,60,9,24.3,12.3,47.0,101325,0,0,0,0,0,0,0,0,0,0,0,7.4,0,0,9999,77777,9,999999999,0,0,0,99,0.2,0,0
2023,12,25,19,60,9,22.7,12.9,54.0,101325,0,0,0,0,0,0,0,0,0,0,0,8.1,0,0,9999,77777,9,999999999,0,0,0,99,0.2,0,0
2023,12,25,20,60,9,22.9,12.9,53.0,101325,0,0,0,0,0,0,0,0,0,0,0,5.4,0,0,9999,77777,9,999999999,0,0,0,99,0.2,0,0
2023,12,25,21,60,9,21.4,13.3,60.0,101325,0,0,0,0,0,0,0,0,0,0,0,5.8,0,0,9999,77777,9,999999999,0,0,0,99,0.2,0,0
2023,12,25,22,60,9,20.1,13.7,67.0,101325,0,0,0,0,0,0,0,0,0,0,0,7.6,0,0,9999,77777,9,999999999,0,0,0,99,0.2,0,0
2023,12,25,23,60,9,19.8,13.9,69.0,101325,0,0,0,0,0,0,0,0,0,0,0,7.6,0,0,9999,77777,9,999999999,0,0,0,99,0.2,0,0
2023,12,25,24,60,9,19.0,14.1,73.0,101325,0,0,0,0,0,0,0,0,0,0,0,8.8,0,0,9999,77777,9,999999999,0,0,0,99,0.2,0,0
2023,12,26,1,60,9,18.9,13.8,72.0,101325,0,0,0,0,0,0,0,0,0,0,0,6.3,0,0,9999,77777,9,999999999,0,0,0,99,0.2,0,0
2023,12,26,2,60,9,19.9,13.8,68.0,101325,0,0,0,0,0,0,0,0,0,0,0,4.3,0,0,9999,77777,9,999999999,0,0,0,99,0.2,0,0
2023,12,26,3,60,9,19.9,14.0,69.0,101325,0,0,0,0,0,0,0,0,0,0,0,6.7,0,0,9999,77777,9,999999999,0,0,0,99,0.2,0,0
2023,12,26,4,60,9,22.2,14.5,62.0,101325,0,0,0,0,0,0,0,0,0,0,0,8.3,0,0,9999,77777,9,999999999,0,0,0,99,0.2,0,0
2023,12,26,5,60,9,26.2,15.5,52.0,101325,0,0,0,0,0,0,0,0,0,0,0,7.6,0,0,9999,77777,9,999999999,0,0,0,99,0.2,0,0
2023,12,26,6,60,9,29.7,15.6,42.0,101325,0,0,0,0,0,0,0,0,0,0,0,6.8,0,0,9999,77777,9,999999999,0,0,0,99,0.2,0,0
2023,12,26,7,60,9,32.1,14.7,35.0,101325,0,0,0,0,0,0,0,0,0,0,0,5.4,0,0,9999,77777,9,999999999,0,0,0,99,0.2,0,0
2023,12,26,8,60,9,33.1,13.5,31.0,101325,0,0,0,0,0,0,0,0,0,0,0,4.1,0,0,9999,77777,9,999999999,0,0,0,99,0.2,0,0
2023,12,26,9,60,9,33.1,13.8,31.0,101325,0,0,0,0,0,0,0,0,0,0,0,8.0,0,0,9999,77777,9,999999999,0,0,0,99,0.2,0,0
2023,12,26,10,60,9,32.6,15.0,35.0,101325,0,0,0,0,0,0,0,0,0,0,0,10.9,0,0,9999,77777,9,999999999,0,0,0,99,0.2,0,0
2023,12,26,11,60,9,31.7,15.4,37.0,101325,0,0,0,0,0,0,0,0,0,0,0,12.3,0,0,9999,77777,9,999999999,0,0,0,99,0.2,0,0
2023,12,26,12,60,9,30.4,15.7,41.0,101325,0,0,0,0,0,0,0,0,0,0,0,11.8,0,0,9999,77777,9,999999999,0,0,0,99,0.2,0,0
2023,12,26,13,60,9,28.5,18.5,55.0,101325,0,0,0,0,0,0,0,0,0,0,0,11.2,0,0,9999,77777,9,999999999,0,0,0,99,0.2,0,0
2023,12,26,14,60,9,26.4,19.6,66.0,101325,0,0,0,0,0,0,0,0,0,0,0,11.6,0,0,9999,77777,9,999999999,0,0,0,99,0.2,0,0
2023,12,26,15,60,9,26.0,18.3,63.0,101325,0,0,0,0,0,0,0,0,0,0,0,13.0,0,0,9999,77777,9,999999999,0,0,0,99,0.2,0,0
2023,12,26,16,60,9,25.7,17.9,62.0,101325,0,0,0,0,0,0,0,0,0,0,0,13.6,0,0,9999,77777,9,999999999,0,0,0,99,0.2,0,0
2023,12,26,17,60,9,25.1,16.6,59.0,101325,0,0,0,0,0,0,0,0,0,0,0,13.4,0,0,9999,77777,9,999999999,0,0,0,99,0.2,0,0
2023,12,26,18,60,9,23.8,15.4,59.0,101325,0,0,0,0,0,0,0,0,0,0,0,8.2,0,0,9999,77777,9,999999999,0,0,0,99,0.2,0,0
2023,12,26,19,60,9,22.3,14.9,63.0,101325,0,0,0,0,0,0,0,0,0,0,0,6.6,0,0,9999,77777,9,999999999,0,0,0,99,0.2,0,0
2023,12,26,20,60,9,21.4,14.7,65.0,101325,0,0,0,0,0,0,0,0,0,0,0,8.7,0,0,9999,77777,9,999999999,0,0,0,99,0.2,0,0
2023,12,26,21,60,9,20.9,14.6,67.0,101325,0,0,0,0,0,0,0,0,0,0,0,9.7,0,0,9999,77777,9,999999999,0,0,0,99,0.2,0,0
2023,12,26,22,60,9,20.8,14.2,66.0,101325,0,0,0,0,0,0,0,0,0,0,0,10.1,0,0,9999,77777,9,999999999,0,0,0,99,0.2,0,0
2023,12,26,23,60,9,21.3,14.0,63.0,101325,0,0,0,0,0,0,0,0,0,0,0,7.9,0,0,9999,77777,9,999999999,0,0,0,99,0.2,0,0
2023,12,26,24,60,9,20.5,14.0,67.0,101325,0,0,0,0,0,0,0,0,0,0,0,7.5,0,0,9999,77777,9,999999999,0,0,0,99,0.2,0,0
2023,12,27,1,60,9,19.8,14.0,69.0,101325,0,0,0,0,0,0,0,0,0,0,0,7.5,0,0,9999,77777,9,999999999,0,0,0,99,0.2,0,0
2023,12,27,2,60,9,20.4,14.6,69.0,101325,0,0,0,0,0,0,0,0,0,0,0,5.9,0,0,9999,77777,9,999999999,0,0,0,99,0.2,0,0
2023,12,27,3,60,9,20.6,14.5,68.0,101325,0,0,0,0,0,0,0,0,0,0,0,6.2,0,0,9999,77777,9,999999999,0,0,0,99,0.2,0,0
2023,12,27,4,60,9,23.0,14.5,59.0,101325,0,0,0,0,0,0,0,0,0,0,0,8.5,0,0,9999,77777,9,999999999,0,0,0,99,0.2,0,0
2023,12,27,5,60,9,26.1,15.4,52.0,101325,0,0,0,0,0,0,0,0,0,0,0,7.1,0,0,9999,77777,9,999999999,0,0,0,99,0.2,0,0
2023,12,27,6,60,9,29.7,15.3,42.0,101325,0,0,0,0,0,0,0,0,0,0,0,6.4,0,0,9999,77777,9,999999999,0,0,0,99,0.2,0,0
2023,12,27,7,60,9,32.2,14.0,33.0,101325,0,0,0,0,0,0,0,0,0,0,0,5.5,0,0,9999,77777,9,999999999,0,0,0,99,0.2,0,0
2023,12,27,8,60,9,33.5,13.3,30.0,101325,0,0,0,0,0,0,0,0,0,0,0,2.5,0,0,9999,77777,9,999999999,0,0,0,99,0.2,0,0
2023,12,27,9,60,9,33.8,13.3,29.0,101325,0,0,0,0,0,0,0,0,0,0,0,4.6,0,0,9999,77777,9,999999999,0,0,0,99,0.2,0,0
2023,12,27,10,60,9,32.8,17.4,40.0,101325,0,0,0,0,0,0,0,0,0,0,0,12.8,0,0,9999,77777,9,999999999,0,0,0,99,0.2,0,0
2023,12,27,11,60,9,31.8,18.7,46.0,101325,0,0,0,0,0,0,0,0,0,0,0,14.6,0,0,9999,77777,9,999999999,0,0,0,99,0.2,0,0
2023,12,27,12,60,9,30.6,18.3,48.0,101325,0,0,0,0,0,0,0,0,0,0,0,14.8,0,0,9999,77777,9,999999999,0,0,0,99,0.2,0,0
2023,12,27,13,60,9,28.5,18.2,54.0,101325,0,0,0,0,0,0,0,0,0,0,0,14.2,0,0,9999,77777,9,999999999,0,0,0,99,0.2,0,0
2023,12,27,14,60,9,27.5,18.2,57.0,101325,0,0,0,0,0,0,0,0,0,0,0,16.6,0,0,9999,77777,9,999999999,0,0,0,99,0.2,0,0
2023,12,27,15,60,9,26.5,19.9,67.0,101325,0,0,0,0,0,0,0,0,0,0,0,16.1,0,0,9999,77777,9,999999999,0,0,0,99,0.2,0,0
2023,12,27,16,60,9,26.0,19.0,65.0,101325,0,0,0,0,0,0,0,0,0,0,0,16.5,0,0,9999,77777,9,999999999,0,0,0,99,0.2,0,0
2023,12,27,17,60,9,25.9,16.6,56.0,101325,0,0,0,0,0,0,0,0,0,0,0,16.9,0,0,9999,77777,9,999999999,0,0,0,99,0.2,0,0
2023,12,27,18,60,9,25.8,15.8,54.0,101325,0,0,0,0,0,0,0,0,0,0,0,16.6,0,0,9999,77777,9,999999999,0,0,0,99,0.2,0,0
2023,12,27,19,60,9,25.3,16.0,57.0,101325,0,0,0,0,0,0,0,0,0,0,0,15.5,0,0,9999,77777,9,999999999,0,0,0,99,0.2,0,0
2023,12,27,20,60,9,24.9,16.0,58.0,101325,0,0,0,0,0,0,0,0,0,0,0,13.4,0,0,9999,77777,9,999999999,0,0,0,99,0.2,0,0
2023,12,27,21,60,9,24.3,15.6,59.0,101325,0,0,0,0,0,0,0,0,0,0,0,9.1,0,0,9999,77777,9,999999999,0,0,0,99,0.2,0,0
2023,12,27,22,60,9,22.4,15.3,64.0,101325,0,0,0,0,0,0,0,0,0,0,0,7.5,0,0,9999,77777,9,999999999,0,0,0,99,0.2,0,0
2023,12,27,23,60,9,21.2,15.0,68.0,101325,0,0,0,0,0,0,0,0,0,0,0,9.4,0,0,9999,77777,9,999999999,0,0,0,99,0.2,0,0
2023,12,27,24,60,9,20.9,14.6,67.0,101325,0,0,0,0,0,0,0,0,0,0,0,8.0,0,0,9999,77777,9,999999999,0,0,0,99,0.2,0,0
2023,12,28,1,60,9,20.2,14.4,69.0,101325,0,0,0,0,0,0,0,0,0,0,0,7.7,0,0,9999,77777,9,999999999,0,0,0,99,0.2,0,0
2023,12,28,2,60,9,20.2,16.2,78.0,101325,0,0,0,0,0,0,0,0,0,0,0,5.1,0,0,9999,77777,9,999999999,0,0,0,99,0.2,0,0
2023,12,28,3,60,9,20.0,15.8,77.0,101325,0,0,0,0,0,0,0,0,0,0,0,4.8,0,0,9999,77777,9,999999999,0,0,0,99,0.2,0,0
2023,12,28,4,60,9,22.4,15.7,66.0,101325,0,0,0,0,0,0,0,0,0,0,0,6.6,0,0,9999,77777,9,999999999,0,0,0,99,0.2,0,0
2023,12,28,5,60,9,26.1,16.3,55.0,101325,0,0,0,0,0,0,0,0,0,0,0,6.2,0,0,9999,77777,9,999999999,0,0,0,99,0.2,0,0
2023,12,28,6,60,9,29.2,16.9,48.0,101325,0,0,0,0,0,0,0,0,0,0,0,5.7,0,0,9999,77777,9,999999999,0,0,0,99,0.2,0,0
2023,12,28,7,60,9,31.0,17.3,44.0,101325,0,0,0,0,0,0,0,0,0,0,0,3.2,0,0,9999,77777,9,999999999,0,0,0,99,0.2,0,0
2023,12,28,8,60,9,32.0,17.3,41.0,101325,0,0,0,0,0,0,0,0,0,0,0,3.0,0,0,9999,77777,9,999999999,0,0,0,99,0.2,0,0
2023,12,28,9,60,9,32.4,17.8,42.0,101325,0,0,0,0,0,0,0,0,0,0,0,7.1,0,0,9999,77777,9,999999999,0,0,0,99,0.2,0,0
2023,12,28,10,60,9,32.1,18.6,45.0,101325,0,0,0,0,0,0,0,0,0,0,0,11.4,0,0,9999,77777,9,999999999,0,0,0,99,0.2,0,0
2023,12,28,11,60,9,31.1,18.7,48.0,101325,0,0,0,0,0,0,0,0,0,0,0,14.8,0,0,9999,77777,9,999999999,0,0,0,99,0.2,0,0
2023,12,28,12,60,9,29.5,19.0,53.0,101325,0,0,0,0,0,0,0,0,0,0,0,15.2,0,0,9999,77777,9,999999999,0,0,0,99,0.2,0,0
2023,12,28,13,60,9,28.1,20.2,62.0,101325,0,0,0,0,0,0,0,0,0,0,0,14.6,0,0,9999,77777,9,999999999,0,0,0,99,0.2,0,0
2023,12,28,14,60,9,26.7,19.4,64.0,101325,0,0,0,0,0,0,0,0,0,0,0,14.7,0,0,9999,77777,9,999999999,0,0,0,99,0.2,0,0
2023,12,28,15,60,9,26.1,19.9,69.0,101325,0,0,0,0,0,0,0,0,0,0,0,14.0,0,0,9999,77777,9,999999999,0,0,0,99,0.2,0,0
2023,12,28,16,60,9,25.5,19.7,71.0,101325,0,0,0,0,0,0,0,0,0,0,0,14.4,0,0,9999,77777,9,999999999,0,0,0,99,0.2,0,0
2023,12,28,17,60,9,25.0,19.8,73.0,101325,0,0,0,0,0,0,0,0,0,0,0,15.7,0,0,9999,77777,9,999999999,0,0,0,99,0.2,0,0
2023,12,28,18,60,9,24.4,17.6,66.0,101325,0,0,0,0,0,0,0,0,0,0,0,9.7,0,0,9999,77777,9,999999999,0,0,0,99,0.2,0,0
2023,12,28,19,60,9,22.6,16.8,70.0,101325,0,0,0,0,0,0,0,0,0,0,0,8.2,0,0,9999,77777,9,999999999,0,0,0,99,0.2,0,0
2023,12,28,20,60,9,23.7,16.2,63.0,101325,0,0,0,0,0,0,0,0,0,0,0,5.6,0,0,9999,77777,9,999999999,0,0,0,99,0.2,0,0
2023,12,28,21,60,9,23.7,16.1,62.0,101325,0,0,0,0,0,0,0,0,0,0,0,5.7,0,0,9999,77777,9,999999999,0,0,0,99,0.2,0,0
2023,12,28,22,60,9,21.5,16.2,72.0,101325,0,0,0,0,0,0,0,0,0,0,0,6.6,0,0,9999,77777,9,999999999,0,0,0,99,0.2,0,0
2023,12,28,23,60,9,20.6,16.1,76.0,101325,0,0,0,0,0,0,0,0,0,0,0,8.3,0,0,9999,77777,9,999999999,0,0,0,99,0.2,0,0
2023,12,28,24,60,9,20.8,15.9,74.0,101325,0,0,0,0,0,0,0,0,0,0,0,7.3,0,0,9999,77777,9,999999999,0,0,0,99,0.2,0,0
2023,12,29,1,60,9,20.6,16.0,75.0,101325,0,0,0,0,0,0,0,0,0,0,0,6.1,0,0,9999,77777,9,999999999,0,0,0,99,0.2,0,0
2023,12,29,2,60,9,20.3,17.1,82.0,101325,0,0,0,0,0,0,0,0,0,0,0,5.2,0,0,9999,77777,9,999999999,0,0,0,99,0.2,0,0
2023,12,29,3,60,9,20.4,17.2,82.0,101325,0,0,0,0,0,0,0,0,0,0,0,4.9,0,0,9999,77777,9,999999999,0,0,0,99,0.2,0,0
2023,12,29,4,60,9,22.5,17.6,74.0,101325,0,0,0,0,0,0,0,0,0,0,0,6.5,0,0,9999,77777,9,999999999,0,0,0,99,0.2,0,0
2023,12,29,5,60,9,25.9,18.0,62.0,101325,0,0,0,0,0,0,0,0,0,0,0,5.5,0,0,9999,77777,9,999999999,0,0,0,99,0.2,0,0
2023,12,29,6,60,9,29.4,17.2,48.0,101325,0,0,0,0,0,0,0,0,0,0,0,4.5,0,0,9999,77777,9,999999999,0,0,0,99,0.2,0,0
2023,12,29,7,60,9,31.7,15.7,38.0,101325,0,0,0,0,0,0,0,0,0,0,0,4.3,0,0,9999,77777,9,999999999,0,0,0,99,0.2,0,0
2023,12,29,8,60,9,32.7,14.8,34.0,101325,0,0,0,0,0,0,0,0,0,0,0,2.9,0,0,9999,77777,9,999999999,0,0,0,99,0.2,0,0
2023,12,29,9,60,9,33.1,14.9,33.0,101325,0,0,0,0,0,0,0,0,0,0,0,5.6,0,0,9999,77777,9,999999999,0,0,0,99,0.2,0,0
2023,12,29,10,60,9,32.6,17.2,40.0,101325,0,0,0,0,0,0,0,0,0,0,0,11.4,0,0,9999,77777,9,999999999,0,0,0,99,0.2,0,0
2023,12,29,11,60,9,31.5,18.0,45.0,101325,0,0,0,0,0,0,0,0,0,0,0,13.3,0,0,9999,77777,9,999999999,0,0,0,99,0.2,0,0
2023,12,29,12,60,9,30.2,18.9,51.0,101325,0,0,0,0,0,0,0,0,0,0,0,13.6,0,0,9999,77777,9,999999999,0,0,0,99,0.2,0,0
2023,12,29,13,60,9,28.6,20.3,61.0,101325,0,0,0,0,0,0,0,0,0,0,0,11.9,0,0,9999,77777,9,999999999,0,0,0,99,0.2,0,0
2023,12,29,14,60,9,26.3,21.7,76.0,101325,0,0,0,0,0,0,0,0,0,0,0,11.5,0,0,9999,77777,9,999999999,0,0,0,99,0.2,0,0
2023,12,29,15,60,9,25.7,21.0,76.0,101325,0,0,0,0,0,0,0,0,0,0,0,12.7,0,0,9999,77777,9,999999999,0,0,0,99,0.2,0,0
2023,12,29,16,60,9,25.3,21.0,77.0,101325,0,0,0,0,0,0,0,0,0,0,0,13.0,0,0,9999,77777,9,999999999,0,0,0,99,0.2,0,0
2023,12,29,17,60,9,24.7,20.7,78.0,101325,0,0,0,0,0,0,0,0,0,0,0,9.4,0,0,9999,77777,9,999999999,0,0,0,99,0.2,0,0
2023,12,29,18,60,9,23.4,19.1,77.0,101325,0,0,0,0,0,0,0,0,0,0,0,7.7,0,0,9999,77777,9,999999999,0,0,0,99,0.2,0,0
2023,12,29,19,60,9,22.0,18.3,80.0,101325,0,0,0,0,0,0,0,0,0,0,0,8.1,0,0,9999,77777,9,999999999,0,0,0,99,0.2,0,0
2023,12,29,20,60,9,21.8,17.9,79.0,101325,0,0,0,0,0,0,0,0,0,0,0,7.4,0,0,9999,77777,9,999999999,0,0,0,99,0.2,0,0
2023,12,29,21,60,9,21.1,17.6,80.0,101325,0,0,0,0,0,0,0,0,0,0,0,7.7,0,0,9999,77777,9,999999999,0,0,0,99,0.2,0,0
2023,12,29,22,60,9,20.7,17.4,81.0,101325,0,0,0,0,0,0,0,0,0,0,0,7.1,0,0,9999,77777,9,999999999,0,0,0,99,0.2,0,0
2023,12,29,23,60,9,19.8,17.4,86.0,101325,0,0,0,0,0,0,0,0,0,0,0,7.4,0,0,9999,77777,9,999999999,0,0,0,99,0.2,0,0
2023,12,29,24,60,9,19.6,17.2,86.0,101325,0,0,0,0,0,0,0,0,0,0,0,8.7,0,0,9999,77777,9,999999999,0,0,0,99,0.2,0,0
2023,12,30,1,60,9,19.5,17.1,86.0,101325,0,0,0,0,0,0,0,0,0,0,0,8.6,0,0,9999,77777,9,999999999,0,0,0,99,0.2,0,0
2023,12,30,2,60,9,19.9,17.9,89.0,101325,0,0,0,0,0,0,0,0,0,0,0,5.9,0,0,9999,77777,9,999999999,0,0,0,99,0.2,0,0
2023,12,30,3,60,9,20.1,18.0,88.0,101325,0,0,0,0,0,0,0,0,0,0,0,3.8,0,0,9999,77777,9,999999999,0,0,0,99,0.2,0,0
2023,12,30,4,60,9,22.5,18.2,76.0,101325,0,0,0,0,0,0,0,0,0,0,0,5.4,0,0,9999,77777,9,999999999,0,0,0,99,0.2,0,0
2023,12,30,5,60,9,26.1,18.3,62.0,101325,0,0,0,0,0,0,0,0,0,0,0,3.6,0,0,9999,77777,9,999999999,0,0,0,99,0.2,0,0
2023,12,30,6,60,9,29.0,18.3,52.0,101325,0,0,0,0,0,0,0,0,0,0,0,3.8,0,0,9999,77777,9,999999999,0,0,0,99,0.2,0,0
2023,12,30,7,60,9,31.0,18.0,46.0,101325,0,0,0,0,0,0,0,0,0,0,0,2.2,0,0,9999,77777,9,999999999,0,0,0,99,0.2,0,0
2023,12,30,8,60,9,31.9,18.0,44.0,101325,0,0,0,0,0,0,0,0,0,0,0,3.9,0,0,9999,77777,9,999999999,0,0,0,99,0.2,0,0
2023,12,30,9,60,9,32.1,18.9,46.0,101325,0,0,0,0,0,0,0,0,0,0,0,8.4,0,0,9999,77777,9,999999999,0,0,0,99,0.2,0,0
2023,12,30,10,60,9,31.6,20.0,50.0,101325,0,0,0,0,0,0,0,0,0,0,0,10.9,0,0,9999,77777,9,999999999,0,0,0,99,0.2,0,0
2023,12,30,11,60,9,30.9,20.2,53.0,101325,0,0,0,0,0,0,0,0,0,0,0,11.5,0,0,9999,77777,9,999999999,0,0,0,99,0.2,0,0
2023,12,30,12,60,9,29.7,19.8,55.0,101325,0,0,0,0,0,0,0,0,0,0,0,12.4,0,0,9999,77777,9,999999999,0,0,0,99,0.2,0,0
2023,12,30,13,60,9,28.0,19.6,60.0,101325,0,0,0,0,0,0,0,0,0,0,0,12.6,0,0,9999,77777,9,999999999,0,0,0,99,0.2,0,0
2023,12,30,14,60,9,26.2,20.3,70.0,101325,0,0,0,0,0,0,0,0,0,0,0,14.0,0,0,9999,77777,9,999999999,0,0,0,99,0.2,0,0
2023,12,30,15,60,9,25.6,21.4,78.0,101325,0,0,0,0,0,0,0,0,0,0,0,13.4,0,0,9999,77777,9,999999999,0,0,0,99,0.2,0,0
2023,12,30,16,60,9,25.0,20.7,77.0,101325,0,0,0,0,0,0,0,0,0,0,0,11.4,0,0,9999,77777,9,999999999,0,0,0,99,0.2,0,0
2023,12,30,17,60,9,24.7,19.4,72.0,101325,0,0,0,0,0,0,0,0,0,0,0,12.0,0,0,9999,77777,9,999999999,0,0,0,99,0.2,0,0
2023,12,30,18,60,9,23.6,18.4,72.0,101325,0,0,0,0,0,0,0,0,0,0,0,6.2,0,0,9999,77777,9,999999999,0,0,0,99,0.2,0,0
2023,12,30,19,60,9,22.0,17.1,74.0,101325,0,0,0,0,0,0,0,0,0,0,0,8.4,0,0,9999,77777,9,999999999,0,0,0,99,0.2,0,0
2023,12,30,20,60,9,21.8,16.6,72.0,101325,0,0,0,0,0,0,0,0,0,0,0,7.9,0,0,9999,77777,9,999999999,0,0,0,99,0.2,0,0
2023,12,30,21,60,9,21.4,16.3,72.0,101325,0,0,0,0,0,0,0,0,0,0,0,8.2,0,0,9999,77777,9,999999999,0,0,0,99,0.2,0,0
2023,12,30,22,60,9,20.9,16.2,75.0,101325,0,0,0,0,0,0,0,0,0,0,0,8.3,0,0,9999,77777,9,999999999,0,0,0,99,0.2,0,0
2023,12,30,23,60,9,20.4,16.1,76.0,101325,0,0,0,0,0,0,0,0,0,0,0,7.6,0,0,9999,77777,9,999999999,0,0,0,99,0.2,0,0
2023,12,30,24,60,9,21.0,17.3,80.0,101325,0,0,0,0,0,0,0,0,0,0,0,6.7,0,0,9999,77777,9,999999999,0,0,0,99,0.2,0,0
2023,12,31,1,60,9,20.4,17.4,83.0,101325,0,0,0,0,0,0,0,0,0,0,0,6.2,0,0,9999,77777,9,999999999,0,0,0,99,0.2,0,0
2023,12,31,2,60,9,19.8,17.7,88.0,101325,0,0,0,0,0,0,0,0,0,0,0,6.1,0,0,9999,77777,9,999999999,0,0,0,99,0.2,0,0
2023,12,31,3,60,9,19.5,16.9,85.0,101325,0,0,0,0,0,0,0,0,0,0,0,6.8,0,0,9999,77777,9,999999999,0,0,0,99,0.2,0,0
2023,12,31,4,60,9,22.8,16.8,69.0,101325,0,0,0,0,0,0,0,0,0,0,0,5.9,0,0,9999,77777,9,999999999,0,0,0,99,0.2,0,0
2023,12,31,5,60,9,26.1,16.7,56.0,101325,0,0,0,0,0,0,0,0,0,0,0,4.4,0,0,9999,77777,9,999999999,0,0,0,99,0.2,0,0
2023,12,31,6,60,9,29.0,16.3,46.0,101325,0,0,0,0,0,0,0,0,0,0,0,3.4,0,0,9999,77777,9,999999999,0,0,0,99,0.2,0,0
2023,12,31,7,60,9,30.8,15.9,41.0,101325,0,0,0,0,0,0,0,0,0,0,0,1.1,0,0,9999,77777,9,999999999,0,0,0,99,0.2,0,0
2023,12,31,8,60,9,31.7,16.2,39.0,101325,0,0,0,0,0,0,0,0,0,0,0,4.0,0,0,9999,77777,9,999999999,0,0,0,99,0.2,0,0
2023,12,31,9,60,9,31.9,17.2,41.0,101325,0,0,0,0,0,0,0,0,0,0,0,9.9,0,0,9999,77777,9,999999999,0,0,0,99,0.2,0,0
2023,12,31,10,60,9,31.5,18.1,45.0,101325,0,0,0,0,0,0,0,0,0,0,0,13.4,0,0,9999,77777,9,999999999,0,0,0,99,0.2,0,0
2023,12,31,11,60,9,31.0,17.8,45.0,101325,0,0,0,0,0,0,0,0,0,0,0,14.0,0,0,9999,77777,9,999999999,0,0,0,99,0.2,0,0
2023,12,31,12,60,9,29.9,17.5,48.0,101325,0,0,0,0,0,0,0,0,0,0,0,14.4,0,0,9999,77777,9,999999999,0,0,0,99,0.2,0,0
2023,12,31,13,60,9,28.5,18.2,54.0,101325,0,0,0,0,0,0,0,0,0,0,0,13.5,0,0,9999,77777,9,999999999,0,0,0,99,0.2,0,0
2023,12,31,14,60,9,26.7,19.0,63.0,101325,0,0,0,0,0,0,0,0,0,0,0,12.9,0,0,9999,77777,9,999999999,0,0,0,99,0.2,0,0
2023,12,31,15,60,9,26.0,19.2,66.0,101325,0,0,0,0,0,0,0,0,0,0,0,11.9,0,0,9999,77777,9,999999999,0,0,0,99,0.2,0,0
2023,12,31,16,60,9,25.2,20.3,74.0,101325,0,0,0,0,0,0,0,0,0,0,0,11.5,0,0,9999,77777,9,999999999,0,0,0,99,0.2,0,0
2023,12,31,17,60,9,24.8,18.8,70.0,101325,0,0,0,0,0,0,0,0,0,0,0,10.5,0,0,9999,77777,9,999999999,0,0,0,99,0.2,0,0
2023,12,31,18,60,9,23.7,17.1,67.0,101325,0,0,0,0,0,0,0,0,0,0,0,5.6,0,0,9999,77777,9,999999999,0,0,0,99,0.2,0,0
2023,12,31,19,60,9,22.3,16.9,72.0,101325,0,0,0,0,0,0,0,0,0,0,0,8.4,0,0,9999,77777,9,999999999,0,0,0,99,0.2,0,0
2023,12,31,20,60,9,22.3,16.7,71.0,101325,0,0,0,0,0,0,0,0,0,0,0,7.1,0,0,9999,77777,9,999999999,0,0,0,99,0.2,0,0
2023,12,31,21,60,9,22.4,16.7,70.0,101325,0,0,0,0,0,0,0,0,0,0,0,5.8,0,0,9999,77777,9,999999999,0,0,0,99,0.2,0,0
2023,12,31,22,60,9,21.6,16.8,74.0,101325,0,0,0,0,0,0,0,0,0,0,0,6.5,0,0,9999,77777,9,999999999,0,0,0,99,0.2,0,0
2023,12,31,23,60,9,21.3,16.9,76.0,101325,0,0,0,0,0,0,0,0,0,0,0,5.8,0,0,9999,77777,9,999999999,0,0,0,99,0.2,0,0
2023,12,31,24,60,9,21.3,17.4,78.0,101325,0,0,0,0,0,0,0,0,0,0,0,5.9,0,0,9999,77777,9,999999999,0,0,0,99,0.2,0,0
